LAMMPS (22 Jul 2025 - Update 1)
  using 1 OpenMP thread(s) per MPI task
package gpu 4
variable        run_name string "Medium NLR LAMMPS benchmark"
print           "--- Starting run: ${run_name} ---"
--- Starting run: Medium NLR LAMMPS benchmark ---

variable 	thermo_print equal 150
variable	total_step equal ${thermo_print}*10
variable	total_step equal 150*10

units		real
boundary	p p p
neighbor        2.0 bin
neigh_modify    delay 10 every 1
atom_style	full
bond_style      harmonic
angle_style     harmonic
dihedral_style  harmonic
pair_style      lj/cut/coul/long 10.0
pair_modify     mix arithmetic
kspace_style    pppm 1e-4
read_data       ../data.begin
Reading data file ...
  orthogonal box = (0.049808341 0.049808341 0.049808341) to (208.65137 208.65137 208.65137)
  2 by 4 by 4 MPI processor grid
  reading atoms ...
  744000 atoms
  reading velocities ...
  744000 velocities
  scanning bonds ...
  2 = max bonds/atom
  orthogonal box = (0.049808341 0.049808341 0.049808341) to (208.65137 208.65137 208.65137)
  2 by 4 by 4 MPI processor grid
  reading bonds ...
  648000 bonds
Finding 1-2 1-3 1-4 neighbors ...
  special bond factors lj:    0        0        0       
  special bond factors coul:  0        0        0       
     2 = max # of 1-2 neighbors
     2 = max # of 1-3 neighbors
     4 = max # of 1-4 neighbors
     2 = max # of special neighbors
  special bonds CPU = 0.011 seconds
  read_data CPU = 4.978 seconds
replicate	2 2 2
Replication is creating a 2x2x2 = 8 times larger system...
  orthogonal box = (0.049808341 0.049808341 0.049808341) to (417.25293 417.25293 417.25293)
  2 by 4 by 4 MPI processor grid
  5952000 atoms
  5184000 bonds
Finding 1-2 1-3 1-4 neighbors ...
  special bond factors lj:    0        0        0       
  special bond factors coul:  0        0        0       
     2 = max # of 1-2 neighbors
     2 = max # of 1-3 neighbors
     4 = max # of 1-4 neighbors
     2 = max # of special neighbors
  special bonds CPU = 0.148 seconds
  replicate CPU = 0.704 seconds
fix             microcanonical all nve
timestep	1
thermo          ${thermo_print}
thermo          150
thermo_modify   flush yes
run             ${total_step}
run             1500

CITE-CITE-CITE-CITE-CITE-CITE-CITE-CITE-CITE-CITE-CITE-CITE-CITE

Your simulation uses code contributions which should be cited:

- GPU package (short-range, long-range and three-body potentials): doi:10.1016/j.cpc.2010.12.021, doi:10.1016/j.cpc.2011.10.012, doi:10.1016/j.cpc.2013.08.002, doi:10.1016/j.commatsci.2014.10.068, doi:10.1016/j.cpc.2016.10.020, doi:10.3233/APC200086

@Article{Brown11,
 author = {W. M. Brown and P. Wang and S. J. Plimpton and A. N. Tharrington},
 title = {Implementing Molecular Dynamics on Hybrid High Performance Computers---Short Range Forces},
 journal = {Comput.\ Phys.\ Commun.},
 year =    2011,
 volume =  182,
 pages =   {898--911},
 doi =     {10.1016/j.cpc.2010.12.021}
}

@Article{Brown12,
 author = {W. M. Brown and A. Kohlmeyer and S. J. Plimpton and A. N. Tharrington},
 title = {Implementing Molecular Dynamics on Hybrid High Performance Computers - Particle-Particle Particle-Mesh},
 journal = {Comput.\ Phys.\ Commun.},
 year =    2012,
 volume =  183,
 doi =     {10.1016/j.cpc.2011.10.012},
 pages =   {449--459}
}

@Article{Brown13,
 author = {W. M. Brown and Y. Masako},
 title = {Implementing Molecular Dynamics on Hybrid High Performance Computers---Three-Body Potentials},
 journal = {Comput.\ Phys.\ Commun.},
 year =    2013,
 volume =  184,
 pages =   {2785--2793},
 doi =     {10.1016/j.cpc.2013.08.002},
}

@Article{Trung15,
 author = {T. D. Nguyen and S. J. Plimpton},
 title = {Accelerating Dissipative Particle Dynamics Simulations for Soft Matter Systems},
 journal = {Comput.\ Mater.\ Sci.},
 year =    2015,
 doi =     {10.1016/j.commatsci.2014.10.068},
 volume =  100,
 pages =   {173--180}
}

@Article{Trung17,
 author = {T. D. Nguyen},
 title = {{GPU}-Accelerated {T}ersoff Potentials for Massively Parallel
    Molecular Dynamics Simulations},
 journal = {Comput.\ Phys.\ Commun.},
 year =    2017,
 doi =     {10.1016/j.cpc.2016.10.020},
 volume =  212,
 pages =   {113--122}
}

@inproceedings{Nikolskiy19,
 author = {V. Nikolskiy and V. Stegailov},
 title = {{GPU} Acceleration of Four-Site Water Models in {LAMMPS}},
 booktitle = {Proceedings of the International Conference on Parallel
    Computing (ParCo 2019), Prague, Czech Republic},
 doi =     {10.3233/APC200086},
 year =    2019
}

CITE-CITE-CITE-CITE-CITE-CITE-CITE-CITE-CITE-CITE-CITE-CITE-CITE

PPPM initialization ...
  using 12-bit tables for long-range coulomb
  G vector (1/distance) = 0.26392422
  grid = 216 216 216
  stencil order = 5
  estimated absolute RMS force accuracy = 0.034660511
  estimated relative force accuracy = 0.0001043791
  using double precision FFTW3
  3d grid and FFT values/proc = 427915 314928
Generated 6 of 6 mixed pair_coeff terms from arithmetic mixing rule
Per MPI rank memory allocation (min/avg/max) = 187.7 | 187.7 | 187.7 Mbytes
   Step          Temp          E_pair         E_mol          TotEng         Press     
         0   299.89378     -97283874       2137399.5     -89825825       40.204143    
       150   299.90529     -97288622       2142010       -89825759       5.9903003    
       300   300.08112     -97291422       2141519.9     -89825929       42.108789    
       450   299.73282     -97287936       2144338.7     -89825805      -38.921823    
       600   299.88386     -97291451       2144975.9     -89826002      -8.9468679    
       750   299.35587     -97286158       2149210.8     -89825842      -13.111398    
       900   299.87299     -97304802       2158516.5     -89826005      -91.020522    
      1050   299.95164     -97299587       2152094.5     -89825817       27.944376    
      1200   300.02871     -97299772       2150847.5     -89825882       26.49754     
      1350   300.21795     -97306249       2153866.7     -89825982      -23.92242     
      1500   300.04972     -97304472       2155160.9     -89825895      -17.043221    
Loop time of 123.49 on 32 procs for 1500 steps with 5952000 atoms

Performance: 1.049 ns/day, 22.869 hours/ns, 12.147 timesteps/s, 72.297 Matom-step/s
86.4% CPU use with 32 MPI tasks x 1 OpenMP threads

MPI task timing breakdown:
Section |  min time  |  avg time  |  max time  |%varavg| %total
---------------------------------------------------------------
Pair    | 4.37       | 5.0462     | 5.9101     |  15.9 |  4.09
Bond    | 4.216      | 4.414      | 4.7271     |   6.5 |  3.57
Kspace  | 100.9      | 101.43     | 101.88     |   1.9 | 82.14
Neigh   | 0.042052   | 0.063141   | 0.085755   |   4.5 |  0.05
Comm    | 8.5035     | 9.128      | 9.7746     |  10.0 |  7.39
Output  | 0.009484   | 0.012482   | 0.017287   |   1.5 |  0.01
Modify  | 1.9307     | 2.3088     | 2.5307     |   8.6 |  1.87
Other   |            | 1.086      |            |       |  0.88

Nlocal:         186000 ave      186340 max      185483 min
Histogram: 6 2 0 0 0 1 7 7 4 5
Nghost:         127749 ave      127984 max      127515 min
Histogram: 3 1 5 3 3 5 6 2 1 3
Neighs:              0 ave           0 max           0 min
Histogram: 32 0 0 0 0 0 0 0 0 0

Total # of neighbors = 0
Ave neighs/atom = 0
Ave special neighs/atom = 1.7419355
Neighbor list builds = 116
Dangerous builds = 0


Total wall time: 0:02:52
