LAMMPS (22 Jul 2025 - Update 1)
  using 1 OpenMP thread(s) per MPI task
variable        run_name string "Medium NLR LAMMPS benchmark"
print           "--- Starting run: ${run_name} ---"
--- Starting run: Medium NLR LAMMPS benchmark ---

variable 	thermo_print equal 150
variable	total_step equal ${thermo_print}*10
variable	total_step equal 150*10

units		real
boundary	p p p
neighbor        2.0 bin
neigh_modify    delay 10 every 1
atom_style	full
bond_style      harmonic
angle_style     harmonic
dihedral_style  harmonic
pair_style      lj/cut/coul/long 10.0
pair_modify     mix arithmetic
kspace_style    pppm 1e-4
read_data       ../data.begin
Reading data file ...
  orthogonal box = (0.049808341 0.049808341 0.049808341) to (208.65137 208.65137 208.65137)
  6 by 4 by 8 MPI processor grid
  reading atoms ...
  744000 atoms
  reading velocities ...
  744000 velocities
  scanning bonds ...
  2 = max bonds/atom
  orthogonal box = (0.049808341 0.049808341 0.049808341) to (208.65137 208.65137 208.65137)
  6 by 4 by 8 MPI processor grid
  reading bonds ...
  648000 bonds
Finding 1-2 1-3 1-4 neighbors ...
  special bond factors lj:    0        0        0       
  special bond factors coul:  0        0        0       
     2 = max # of 1-2 neighbors
     2 = max # of 1-3 neighbors
     4 = max # of 1-4 neighbors
     2 = max # of special neighbors
  special bonds CPU = 0.084 seconds
  read_data CPU = 5.345 seconds
replicate	2 2 2
Replication is creating a 2x2x2 = 8 times larger system...
  orthogonal box = (0.049808341 0.049808341 0.049808341) to (417.25293 417.25293 417.25293)
  6 by 4 by 8 MPI processor grid
  5952000 atoms
  5184000 bonds
Finding 1-2 1-3 1-4 neighbors ...
  special bond factors lj:    0        0        0       
  special bond factors coul:  0        0        0       
     2 = max # of 1-2 neighbors
     2 = max # of 1-3 neighbors
     4 = max # of 1-4 neighbors
     2 = max # of special neighbors
  special bonds CPU = 0.089 seconds
  replicate CPU = 0.666 seconds
fix             microcanonical all nve
timestep	1
thermo          ${thermo_print}
thermo          150
thermo_modify   flush yes
run             ${total_step}
run             1500
PPPM initialization ...
  using 12-bit tables for long-range coulomb
  G vector (1/distance) = 0.26392422
  grid = 216 216 216
  stencil order = 5
  estimated absolute RMS force accuracy = 0.034660511
  estimated relative force accuracy = 0.0001043791
  using double precision FFTW3
  3d grid and FFT values/proc = 89182 54432
Generated 6 of 6 mixed pair_coeff terms from arithmetic mixing rule
Neighbor list info ...
  update: every = 1 steps, delay = 10 steps, check = yes
  max neighbors/atom: 2000, page size: 100000
  master list distance cutoff = 12
  ghost atom cutoff = 12
  binsize = 6, bins = 70 70 70
  1 neighbor lists, perpetual/occasional/extra = 1 0 0
  (1) pair lj/cut/coul/long, perpetual
      attributes: half, newton on
      pair build: half/bin/newton
      stencil: half/bin/3d
      bin: standard
Per MPI rank memory allocation (min/avg/max) = 79.22 | 79.73 | 80.56 Mbytes
   Step          Temp          E_pair         E_mol          TotEng         Press     
         0   299.89378     -97283939       2137399.5     -89825891       40.182647    
       150   299.90536     -97288689       2142011.1     -89825824       5.9807086    
       300   300.08141     -97291493       2141521.6     -89825993       42.106147    
       450   299.73382     -97288048       2144362.6     -89825875      -38.957174    
       600   299.85809     -97290964       2144874.3     -89826074      -6.40664      
       750   299.34063     -97286423       2149692.2     -89825896      -13.145055    
       900   299.78569     -97306119       2161371.9     -89826016      -62.657245    
      1050   300.02305     -97301928       2153107       -89825878       34.078367    
      1200   300.15711     -97303365       2152133.1     -89825911       26.932532    
      1350   300.33867     -97311267       2156886       -89825838       17.474447    
      1500   300.0465      -97305643       2156372.8     -89825911      -25.25889     
Loop time of 266 on 192 procs for 1500 steps with 5952000 atoms

Performance: 0.487 ns/day, 49.259 hours/ns, 5.639 timesteps/s, 33.564 Matom-step/s
97.4% CPU use with 192 MPI tasks x 1 OpenMP threads

MPI task timing breakdown:
Section |  min time  |  avg time  |  max time  |%varavg| %total
---------------------------------------------------------------
Pair    | 145.69     | 152.45     | 162.62     |  27.4 | 57.31
Bond    | 0.57035    | 0.72616    | 1.0759     |  12.1 |  0.27
Kspace  | 70.685     | 81.071     | 87.791     |  36.9 | 30.48
Neigh   | 23.681     | 23.805     | 23.909     |   0.7 |  8.95
Comm    | 4.9201     | 5.6342     | 6.1985     |  12.0 |  2.12
Output  | 0.0031291  | 0.0065507  | 0.014195   |   1.6 |  0.00
Modify  | 0.92433    | 1.2439     | 1.7167     |  14.2 |  0.47
Other   |            | 1.059      |            |       |  0.40

Nlocal:          31000 ave       31159 max       30771 min
Histogram: 4 4 8 15 28 39 38 28 13 15
Nghost:        43890.1 ave       44158 max       43543 min
Histogram: 1 6 2 8 42 70 27 16 16 4
Neighs:    9.18335e+06 ave 9.32014e+06 max 9.01455e+06 min
Histogram: 4 2 7 38 34 28 21 34 17 7

Total # of neighbors = 1.7632035e+09
Ave neighs/atom = 296.23715
Ave special neighs/atom = 1.7419355
Neighbor list builds = 112
Dangerous builds = 0


Total wall time: 0:04:33
