LAMMPS (22 Jul 2025 - Update 1)
  using 1 OpenMP thread(s) per MPI task
variable        run_name string "Large NLR LAMMPS benchmark"
print           "--- Starting run: ${run_name} ---"
--- Starting run: Large NLR LAMMPS benchmark ---

variable 	thermo_print equal 20
variable	total_step equal ${thermo_print}*10
variable	total_step equal 20*10

units		real
boundary	p p p
neighbor        2.0 bin
neigh_modify    delay 10 every 1
atom_style	full
bond_style      harmonic
angle_style     harmonic
dihedral_style  harmonic
pair_style      lj/cut/coul/long 10.0
pair_modify     mix arithmetic
kspace_style    pppm 1e-4
read_data       ../data.begin
Reading data file ...
  orthogonal box = (0.049808341 0.049808341 0.049808341) to (208.65137 208.65137 208.65137)
  6 by 8 by 8 MPI processor grid
  reading atoms ...
  744000 atoms
  reading velocities ...
  744000 velocities
  scanning bonds ...
  2 = max bonds/atom
  orthogonal box = (0.049808341 0.049808341 0.049808341) to (208.65137 208.65137 208.65137)
  6 by 8 by 8 MPI processor grid
  reading bonds ...
  648000 bonds
Finding 1-2 1-3 1-4 neighbors ...
  special bond factors lj:    0        0        0       
  special bond factors coul:  0        0        0       
     2 = max # of 1-2 neighbors
     2 = max # of 1-3 neighbors
     4 = max # of 1-4 neighbors
     2 = max # of special neighbors
  special bonds CPU = 0.093 seconds
  read_data CPU = 5.281 seconds
replicate	4 4 4
Replication is creating a 4x4x4 = 64 times larger system...
  orthogonal box = (0.049808341 0.049808341 0.049808341) to (834.45606 834.45606 834.45606)
  6 by 8 by 8 MPI processor grid
  47616000 atoms
  41472000 bonds
Finding 1-2 1-3 1-4 neighbors ...
  special bond factors lj:    0        0        0       
  special bond factors coul:  0        0        0       
     2 = max # of 1-2 neighbors
     2 = max # of 1-3 neighbors
     4 = max # of 1-4 neighbors
     2 = max # of special neighbors
  special bonds CPU = 0.248 seconds
  replicate CPU = 1.536 seconds
fix             microcanonical all nve
timestep	1
thermo          ${thermo_print}
thermo          20
thermo_modify   flush yes
run             ${total_step}
run             200
PPPM initialization ...
  using 12-bit tables for long-range coulomb
  G vector (1/distance) = 0.25839024
  grid = 405 405 405
  stencil order = 5
  estimated absolute RMS force accuracy = 0.046279783
  estimated relative force accuracy = 0.00013937019
  using double precision FFTW3
  3d grid and FFT values/proc = 237177 179010
Generated 6 of 6 mixed pair_coeff terms from arithmetic mixing rule
Neighbor list info ...
  update: every = 1 steps, delay = 10 steps, check = yes
  max neighbors/atom: 2000, page size: 100000
  master list distance cutoff = 12
  ghost atom cutoff = 12
  binsize = 6, bins = 140 140 140
  1 neighbor lists, perpetual/occasional/extra = 1 0 0
  (1) pair lj/cut/coul/long, perpetual
      attributes: half, newton on
      pair build: half/bin/newton
      stencil: half/bin/3d
      bin: standard
Per MPI rank memory allocation (min/avg/max) = 263.5 | 264.9 | 266.3 Mbytes
   Step          Temp          E_pair         E_mol          TotEng         Press     
         0   299.89374     -7.7826963e+08  17099196      -7.1860524e+08  41.697847    
        20   299.73603     -7.782981e+08   17151228      -7.1860406e+08 -20.12323     
        40   299.85878     -7.7840853e+08  17244891      -7.1860341e+08 -78.834537    
        60   299.89804     -7.7829577e+08  17124705      -7.1860526e+08  2.3856861    
        80   299.85695     -7.7830827e+08  17143673      -7.1860463e+08 -8.9841202    
       100   299.87722     -7.7843374e+08  17266761      -7.1860413e+08 -49.401294    
       120   299.66753     -7.7826242e+08  17125752      -7.1860358e+08  38.734726    
       140   299.89715     -7.7833732e+08  17166798      -7.1860485e+08  1.5126871    
       160   299.98542     -7.7845068e+08  17268145      -7.1860433e+08 -50.683443    
       180   300.02578     -7.783256e+08   17136698      -7.1860497e+08 -12.412438    
       200   299.55555     -7.7834196e+08  17220436      -7.1860434e+08 -38.662151    
Loop time of 135.569 on 384 procs for 200 steps with 47616000 atoms

Performance: 0.127 ns/day, 188.290 hours/ns, 1.475 timesteps/s, 70.246 Matom-step/s
98.3% CPU use with 384 MPI tasks x 1 OpenMP threads

MPI task timing breakdown:
Section |  min time  |  avg time  |  max time  |%varavg| %total
---------------------------------------------------------------
Pair    | 80.11      | 82.723     | 88.326     |  15.3 | 61.02
Bond    | 0.45115    | 0.70101    | 0.93395    |  11.6 |  0.52
Kspace  | 29.986     | 35.659     | 38.39      |  23.6 | 26.30
Neigh   | 12.296     | 12.356     | 12.391     |   0.5 |  9.11
Comm    | 1.6616     | 2.2082     | 2.5709     |  10.0 |  1.63
Output  | 0.020683   | 0.029146   | 0.043      |   2.5 |  0.02
Modify  | 0.79546    | 1.3192     | 1.8352     |  15.6 |  0.97
Other   |            | 0.5735     |            |       |  0.42

Nlocal:         124000 ave      124236 max      123618 min
Histogram: 32 0 32 32 0 62 95 3 32 96
Nghost:        95950.2 ave       96176 max       95720 min
Histogram: 64 0 9 84 35 17 78 32 33 32
Neighs:    3.67333e+07 ave 3.69941e+07 max 3.63951e+07 min
Histogram: 6 15 28 48 48 67 52 56 44 20

Total # of neighbors = 1.4105579e+10
Ave neighs/atom = 296.23611
Ave special neighs/atom = 1.7419355
Neighbor list builds = 15
Dangerous builds = 0


Total wall time: 0:02:25
