LAMMPS (22 Jul 2025 - Update 1)
  using 1 OpenMP thread(s) per MPI task
variable        run_name string "Large NLR LAMMPS benchmark"
print           "--- Starting run: ${run_name} ---"
--- Starting run: Large NLR LAMMPS benchmark ---

variable 	thermo_print equal 20
variable	total_step equal ${thermo_print}*10
variable	total_step equal 20*10

units		real
boundary	p p p
neighbor        2.0 bin
neigh_modify    delay 10 every 1
atom_style	full
bond_style      harmonic
angle_style     harmonic
dihedral_style  harmonic
pair_style      lj/cut/coul/long 10.0
pair_modify     mix arithmetic
kspace_style    pppm 1e-4
read_data       ../data.begin
Reading data file ...
  orthogonal box = (0.049808341 0.049808341 0.049808341) to (208.65137 208.65137 208.65137)
  6 by 4 by 8 MPI processor grid
  reading atoms ...
  744000 atoms
  reading velocities ...
  744000 velocities
  scanning bonds ...
  2 = max bonds/atom
  orthogonal box = (0.049808341 0.049808341 0.049808341) to (208.65137 208.65137 208.65137)
  6 by 4 by 8 MPI processor grid
  reading bonds ...
  648000 bonds
Finding 1-2 1-3 1-4 neighbors ...
  special bond factors lj:    0        0        0       
  special bond factors coul:  0        0        0       
     2 = max # of 1-2 neighbors
     2 = max # of 1-3 neighbors
     4 = max # of 1-4 neighbors
     2 = max # of special neighbors
  special bonds CPU = 0.075 seconds
  read_data CPU = 5.439 seconds
replicate	4 4 4
Replication is creating a 4x4x4 = 64 times larger system...
  orthogonal box = (0.049808341 0.049808341 0.049808341) to (834.45606 834.45606 834.45606)
  6 by 4 by 8 MPI processor grid
  47616000 atoms
  41472000 bonds
Finding 1-2 1-3 1-4 neighbors ...
  special bond factors lj:    0        0        0       
  special bond factors coul:  0        0        0       
     2 = max # of 1-2 neighbors
     2 = max # of 1-3 neighbors
     4 = max # of 1-4 neighbors
     2 = max # of special neighbors
  special bonds CPU = 0.404 seconds
  replicate CPU = 1.626 seconds
fix             microcanonical all nve
timestep	1
thermo          ${thermo_print}
thermo          20
thermo_modify   flush yes
run             ${total_step}
run             200
PPPM initialization ...
  using 12-bit tables for long-range coulomb
  G vector (1/distance) = 0.25839024
  grid = 405 405 405
  stencil order = 5
  estimated absolute RMS force accuracy = 0.046279783
  estimated relative force accuracy = 0.00013937019
  using double precision FFTW3
  3d grid and FFT values/proc = 445227 358020
Generated 6 of 6 mixed pair_coeff terms from arithmetic mixing rule
Neighbor list info ...
  update: every = 1 steps, delay = 10 steps, check = yes
  max neighbors/atom: 2000, page size: 100000
  master list distance cutoff = 12
  ghost atom cutoff = 12
  binsize = 6, bins = 140 140 140
  1 neighbor lists, perpetual/occasional/extra = 1 0 0
  (1) pair lj/cut/coul/long, perpetual
      attributes: half, newton on
      pair build: half/bin/newton
      stencil: half/bin/3d
      bin: standard
Per MPI rank memory allocation (min/avg/max) = 508.2 | 510.2 | 512.3 Mbytes
   Step          Temp          E_pair         E_mol          TotEng         Press     
         0   299.89374     -7.7826963e+08  17099196      -7.1860524e+08  41.697847    
        20   299.73603     -7.782981e+08   17151228      -7.1860406e+08 -20.12323     
        40   299.85878     -7.7840853e+08  17244891      -7.1860341e+08 -78.834537    
        60   299.89804     -7.7829577e+08  17124705      -7.1860526e+08  2.3856861    
        80   299.85695     -7.7830827e+08  17143673      -7.1860463e+08 -8.9841203    
       100   299.87722     -7.7843374e+08  17266761      -7.1860413e+08 -49.401294    
       120   299.66753     -7.7826242e+08  17125752      -7.1860358e+08  38.734726    
       140   299.89715     -7.7833732e+08  17166798      -7.1860485e+08  1.512687     
       160   299.98542     -7.7845068e+08  17268145      -7.1860433e+08 -50.683441    
       180   300.02578     -7.783256e+08   17136698      -7.1860497e+08 -12.412443    
       200   299.55555     -7.7834196e+08  17220436      -7.1860434e+08 -38.662159    
Loop time of 278.001 on 192 procs for 200 steps with 47616000 atoms

Performance: 0.062 ns/day, 386.113 hours/ns, 0.719 timesteps/s, 34.256 Matom-step/s
98.2% CPU use with 192 MPI tasks x 1 OpenMP threads

MPI task timing breakdown:
Section |  min time  |  avg time  |  max time  |%varavg| %total
---------------------------------------------------------------
Pair    | 159.4      | 164.27     | 172.61     |  22.4 | 59.09
Bond    | 1.0291     | 1.4406     | 1.879      |  15.2 |  0.52
Kspace  | 71.378     | 79.786     | 84.912     |  31.8 | 28.70
Neigh   | 24.651     | 24.783     | 24.856     |   0.8 |  8.91
Comm    | 3.0804     | 3.7721     | 4.4549     |  11.9 |  1.36
Output  | 0.039559   | 0.054984   | 0.072167   |   3.0 |  0.02
Modify  | 2.1534     | 2.8017     | 3.5921     |  18.1 |  1.01
Other   |            | 1.091      |            |       |  0.39

Nlocal:         248000 ave      248426 max      247602 min
Histogram: 64 0 0 0 0 64 31 1 0 32
Nghost:         150785 ave      151028 max      150371 min
Histogram: 32 0 0 32 0 0 0 41 31 56
Neighs:    7.34666e+07 ave 7.39069e+07 max 7.29916e+07 min
Histogram: 8 16 22 29 17 18 24 23 24 11

Total # of neighbors = 1.4105579e+10
Ave neighs/atom = 296.23611
Ave special neighs/atom = 1.7419355
Neighbor list builds = 15
Dangerous builds = 0


Total wall time: 0:04:50
