 running    1 mpi-ranks, with    1 threads/rank, on    1 nodes
 distrk:  each k-point on    1 cores,    1 groups
 distr:  one band on    1 cores,    1 groups
 Offloading initialized ...    1 GPUs detected
 vasp.6.5.1 10Mar25 (build Sep 17 2025 13:25:28) complex                         
 POSCAR found type information on POSCAR CuInSe
 POSCAR found :  3 types and     128 ions
 Reading from existing POTCAR
 scaLAPACK will be used selectively (only on CPU)
 Reading from existing POTCAR
 -----------------------------------------------------------------------------
|                                                                             |
|               ----> ADVICE to this user running VASP <----                  |
|                                                                             |
|     You have a (more or less) 'large supercell' and for larger cells it     |
|     might be more efficient to use real-space projection operators.         |
|     Therefore, try LREAL= Auto in the INCAR file.                           |
|     Mind: If you want to do very accurate calculations, keep the            |
|     reciprocal projection scheme (i.e. LREAL=.FALSE.).                      |
|                                                                             |
 -----------------------------------------------------------------------------

Warning: ieee_invalid is signaling
Warning: ieee_divide_by_zero is signaling
Warning: ieee_underflow is signaling
Warning: ieee_inexact is signaling
FORTRAN STOP
 LDA part: xc-table for (Slater+PW92), standard interpolation
 POSCAR, INCAR and KPOINTS ok, starting setup
 FFT: planning ... GRIDC
 FFT: planning ... GRID_SOFT
 FFT: planning ... GRID
 WAVECAR not read
 WARNING: random wavefunctions but no delay for mixing, default for NELMDL
 entering main loop
       N       E                     dE             d eps       ncg     rms          rms(c)
DAV:   1    -0.670200464258E+05   -0.67020E+05   -0.51670E+05  8292   0.213E+03
DAV:   2    -0.789728625628E+05   -0.11953E+05   -0.11693E+05  8292   0.577E+02
DAV:   3    -0.818076736128E+05   -0.28348E+04   -0.26547E+04  8695   0.245E+02
DAV:   4    -0.821725742260E+05   -0.36490E+03   -0.35725E+03  9832   0.824E+01
DAV:   5    -0.673714455109E+03    0.81499E+05   -0.65406E+02 10024   0.864E+01    0.194E+01
DAV:   6    -0.668736775285E+03    0.49777E+01   -0.55847E+01 11752   0.189E+01    0.126E+01
DAV:   7    -0.666014464678E+03    0.27223E+01   -0.21927E+01 12000   0.171E+01    0.605E+00
DAV:   8    -0.666464819184E+03   -0.45035E+00   -0.75927E+00  9832   0.430E+00    0.382E+00
DAV:   9    -0.666417093091E+03    0.47726E-01   -0.50844E-01 10360   0.199E+00    0.253E+00
DAV:  10    -0.666361320807E+03    0.55772E-01   -0.17588E-01 11136   0.114E+00    0.142E+00
DAV:  11    -0.666352320697E+03    0.90001E-02   -0.48294E-02 10784   0.360E-01    0.819E-01
DAV:  12    -0.666353157690E+03   -0.83699E-03   -0.98642E-03 10208   0.159E-01    0.490E-01
DAV:  13    -0.666354449128E+03   -0.12914E-02   -0.22289E-03 10360   0.109E-01    0.298E-01
DAV:  14    -0.666355481848E+03   -0.10327E-02   -0.11676E-03 10016   0.920E-02    0.186E-01
DAV:  15    -0.666356201789E+03   -0.71994E-03   -0.61737E-04  9216   0.743E-02    0.116E-01
DAV:  16    -0.666356636072E+03   -0.43428E-03   -0.32926E-04  8232   0.546E-02    0.741E-02
DAV:  17    -0.666356877197E+03   -0.24113E-03   -0.16394E-04  8224   0.422E-02    0.477E-02
DAV:  18    -0.666357005270E+03   -0.12807E-03   -0.81397E-05  7752   0.313E-02    0.310E-02
DAV:  19    -0.666357072891E+03   -0.67621E-04   -0.42198E-05  7624   0.229E-02    0.203E-02
DAV:  20    -0.666357107756E+03   -0.34864E-04   -0.20339E-05  5712   0.169E-02    0.134E-02
DAV:  21    -0.666357125761E+03   -0.18006E-04   -0.12804E-05  5264   0.137E-02    0.900E-03
DAV:  22    -0.666357135248E+03   -0.94865E-05   -0.90453E-06  5016   0.122E-02
   1 F= -.66635714E+03 E0= -.66635714E+03  d E =-.571180E-14
 writing wavefunctions
