 vasp.6.5.1 10Mar25 (build Sep 17 2025 13:25:28) complex                         
 executed on              LinuxNV date 2026.02.13  13:00:21
 running    3 mpi-ranks, with    1 threads/rank, on    1 nodes
 distrk:  each k-point on    1 cores,    3 groups
 distr:  one band on NCORE=   1 cores,    1 groups
 Offloading initialized ...    3 GPUs detected


--------------------------------------------------------------------------------------------------------


 INCAR:
   SYSTEM = CuInSe
   ISTART = 1
   ENCUT = 600
   ISMEAR = 0
   SIGMA = 0.01
   LMAXMIX = 4
   PREC = accurate
   KPAR = 3
   LHFCALC = .TRUE.
   PRECFOCK = Normal
   AEXX = 0.25
   HFSCREEN = 0.2
   ALGO = Normal
   TIME = 0.4
   NKRED = 2
   NELMIN = 3
   EDIFF = 1E-5

 POTCAR:   PAW_PBE Cu 05Jan2001                   
 POTCAR:   PAW_PBE In_d 06Sep2000                 
 POTCAR:   PAW_PBE Se 06Sep2000                   
 POTCAR:   PAW_PBE Cu 05Jan2001                   
   VRHFIN =Cu: d10 p1                                                                               
   LEXCH  = PE                                                                                      
   EATOM  =  1390.9800 eV,  102.2341 Ry                                                             
                                                                                                    
   TITEL  = PAW_PBE Cu 05Jan2001                                                                    
   LULTRA =        F    use ultrasoft PP ?                                                          
   IUNSCR =        1    unscreen: 0-lin 1-nonlin 2-no                                               
   RPACOR =    2.000    partial core radius                                                         
   POMASS =   63.546; ZVAL   =   11.000    mass and valenz                                          
   RCORE  =    2.300    outmost cutoff radius                                                       
   RWIGS  =    2.480; RWIGS  =    1.312    wigner-seitz radius (au A)                               
   ENMAX  =  273.214; ENMIN  =  204.910 eV                                                          
   RCLOC  =    1.712    cutoff for local pot                                                        
   LCOR   =        T    correct aug charges                                                         
   LPAW   =        T    paw PP                                                                      
   EAUG   =  516.456                                                                                
   DEXC   =    -.008                                                                                
   RMAX   =    2.789    core radius for proj-oper                                                   
   RAUG   =    1.300    factor for augmentation sphere                                              
   RDEP   =    2.302    radius for radial grids                                                     
   QCUT   =   -4.481; QGAM   =    8.962    optimization parameters                                  
                                                                                                    
   Description                                                                                      
     l     E      TYP  RCUT    TYP  RCUT                                                            
     2   .000     23  2.300                                                                         
     2   .000     23  2.300                                                                         
     0   .000     23  2.300                                                                         
     0   .000     23  2.300                                                                         
     1  -.200     23  2.300                                                                         
     1   .000     23  2.300                                                                         
     3   .000      7   .000                                                                         
  local pseudopotential read in
  partial core-charges read in
  atomic valenz-charges read in
  non local Contribution for L=            2  read in
    real space projection operators read in
  non local Contribution for L=            2  read in
    real space projection operators read in
  non local Contribution for L=            0  read in
    real space projection operators read in
  non local Contribution for L=            0  read in
    real space projection operators read in
  non local Contribution for L=            1  read in
    real space projection operators read in
  non local Contribution for L=            1  read in
    real space projection operators read in
    PAW grid and wavefunctions read in
 
   number of l-projection  operators is LMAX  =            6
   number of lm-projection operators is LMMAX =           18
 
 POTCAR:   PAW_PBE In_d 06Sep2000                 
   VRHFIN =In: s2p1                                                                                 
   LEXCH  = PE                                                                                      
   EATOM  =  1576.8738 eV,  115.8970 Ry                                                             
                                                                                                    
   TITEL  = PAW_PBE In_d 06Sep2000                                                                  
   LULTRA =        F    use ultrasoft PP ?                                                          
   IUNSCR =        1    unscreen: 0-lin 1-nonlin 2-no                                               
   RPACOR =    2.200    partial core radius                                                         
   POMASS =  114.820; ZVAL   =   13.000    mass and valenz                                          
   RCORE  =    2.500    outmost cutoff radius                                                       
   RWIGS  =    3.170; RWIGS  =    1.677    wigner-seitz radius (au A)                               
   ENMAX  =  239.218; ENMIN  =  179.413 eV                                                          
   ICORE  =        3    local potential                                                             
   LCOR   =        T    correct aug charges                                                         
   LPAW   =        T    paw PP                                                                      
   EAUG   =  449.704                                                                                
   DEXC   =    -.003                                                                                
   RMAX   =    2.981    core radius for proj-oper                                                   
   RAUG   =    1.300    factor for augmentation sphere                                              
   RDEP   =    2.630    radius for radial grids                                                     
   QCUT   =   -4.193; QGAM   =    8.386    optimization parameters                                  
                                                                                                    
   Description                                                                                      
     l     E      TYP  RCUT    TYP  RCUT                                                            
     2   .000     23  2.500                                                                         
     2  -.100     23  2.500                                                                         
     0   .000     23  2.500                                                                         
     0   .000     23  2.500                                                                         
     1   .000     23  2.500                                                                         
     1   .000     23  2.500                                                                         
     3  -.100      7  2.500                                                                         
  local pseudopotential read in
  partial core-charges read in
  atomic valenz-charges read in
  non local Contribution for L=            2  read in
    real space projection operators read in
  non local Contribution for L=            2  read in
    real space projection operators read in
  non local Contribution for L=            0  read in
    real space projection operators read in
  non local Contribution for L=            0  read in
    real space projection operators read in
  non local Contribution for L=            1  read in
    real space projection operators read in
  non local Contribution for L=            1  read in
    real space projection operators read in
    PAW grid and wavefunctions read in
 
   number of l-projection  operators is LMAX  =            6
   number of lm-projection operators is LMMAX =           18
 
 POTCAR:   PAW_PBE Se 06Sep2000                   
   VRHFIN =Se: s2p4                                                                                 
   LEXCH  = PE                                                                                      
   EATOM  =   256.9644 eV,   18.8864 Ry                                                             
                                                                                                    
   TITEL  = PAW_PBE Se 06Sep2000                                                                    
   LULTRA =        F    use ultrasoft PP ?                                                          
   IUNSCR =        1    unscreen: 0-lin 1-nonlin 2-no                                               
   RPACOR =    1.900    partial core radius                                                         
   POMASS =   78.960; ZVAL   =    6.000    mass and valenz                                          
   RCORE  =    2.100    outmost cutoff radius                                                       
   RWIGS  =    2.200; RWIGS  =    1.164    wigner-seitz radius (au A)                               
   ENMAX  =  211.534; ENMIN  =  158.651 eV                                                          
   ICORE  =        3    local potential                                                             
   LCOR   =        T    correct aug charges                                                         
   LPAW   =        T    paw PP                                                                      
   EAUG   =  446.842                                                                                
   DEXC   =    -.031                                                                                
   RMAX   =    3.170    core radius for proj-oper                                                   
   RAUG   =    1.300    factor for augmentation sphere                                              
   RDEP   =    2.177    radius for radial grids                                                     
   QCUT   =   -3.943; QGAM   =    7.886    optimization parameters                                  
                                                                                                    
   Description                                                                                      
     l     E      TYP  RCUT    TYP  RCUT                                                            
     0   .000     23  2.100                                                                         
     0   .000     23  2.100                                                                         
     1   .000     23  2.100                                                                         
     1   .000     23  2.100                                                                         
     2   .000     23  2.100                                                                         
     3  -.100      7  2.100                                                                         
  local pseudopotential read in
  partial core-charges read in
  atomic valenz-charges read in
  non local Contribution for L=            0  read in
    real space projection operators read in
  non local Contribution for L=            0  read in
    real space projection operators read in
  non local Contribution for L=            1  read in
    real space projection operators read in
  non local Contribution for L=            1  read in
    real space projection operators read in
  non local Contribution for L=            2  read in
    real space projection operators read in
    PAW grid and wavefunctions read in
 
   number of l-projection  operators is LMAX  =            5
   number of lm-projection operators is LMMAX =           13
 
 -----------------------------------------------------------------------------
|                                                                             |
|               ----> ADVICE to this user running VASP <----                  |
|                                                                             |
|     You have a (more or less) 'large supercell' and for larger cells it     |
|     might be more efficient to use real-space projection operators.         |
|     Therefore, try LREAL= Auto in the INCAR file.                           |
|     Mind: If you want to do very accurate calculations, keep the            |
|     reciprocal projection scheme (i.e. LREAL=.FALSE.).                      |
|                                                                             |
 -----------------------------------------------------------------------------

 PAW_PBE Cu 05Jan2001                   :
 energy of atom  1       EATOM=-1390.9800
 kinetic energy error for atom=    0.0021 (will be added to EATOM!!)
 PAW_PBE In_d 06Sep2000                 :
 energy of atom  2       EATOM=-1576.8738
 kinetic energy error for atom=    0.0011 (will be added to EATOM!!)
 PAW_PBE Se 06Sep2000                   :
 energy of atom  3       EATOM= -256.9644
 kinetic energy error for atom=    0.0006 (will be added to EATOM!!)
 
 
 POSCAR: Cu1-In1-Se2 'I -4 2 d'  #122
  positions in direct lattice
  No initial velocities read in


 exchange-correlation table for PE
   RHO(1)=    0.500       N(1)  =     2000
   RHO(2)=  100.500       N(2)  =     4000
 


--------------------------------------------------------------------------------------------------------


 ion  position               nearest neighbor table
   1  0.000  0.250  0.125-  97 2.46  81 2.46  69 2.46 109 2.46
   2  0.000  0.250  0.625-  98 2.46  82 2.46  70 2.46 110 2.46
   3  0.000  0.750  0.125-  99 2.46  83 2.46  71 2.46 111 2.46
   4  0.000  0.750  0.625- 100 2.46  84 2.46  72 2.46 112 2.46
   5  0.500  0.250  0.125-  65 2.46  85 2.46 101 2.46 105 2.46
   6  0.500  0.250  0.625-  66 2.46  86 2.46 102 2.46 106 2.46
   7  0.500  0.750  0.125-  67 2.46  87 2.46 103 2.46 107 2.46
   8  0.500  0.750  0.625-  68 2.46  88 2.46 104 2.46 108 2.46
   9  0.000  0.000  0.000-  94 2.46  97 2.46  76 2.46 111 2.46
  10  0.000  0.000  0.500-  93 2.46  98 2.46  75 2.46 112 2.46
  11  0.000  0.500  0.000-  99 2.46  96 2.46  74 2.46 109 2.46
  12  0.000  0.500  0.500- 100 2.46  95 2.46  73 2.46 110 2.46
  13  0.500  0.000  0.000-  90 2.46  80 2.46 101 2.46 107 2.46
  14  0.500  0.000  0.500-  89 2.46  79 2.46 102 2.46 108 2.46
  15  0.500  0.500  0.000-  78 2.46  92 2.46 103 2.46 105 2.46
  16  0.500  0.500  0.500-  77 2.46  91 2.46 104 2.46 106 2.46
  17  0.250  0.000  0.375-  89 2.46  75 2.46 115 2.46 121 2.46
  18  0.250  0.000  0.875-  90 2.46  76 2.46 116 2.46 122 2.46
  19  0.250  0.500  0.375-  73 2.46  91 2.46 113 2.46 123 2.46
  20  0.250  0.500  0.875-  74 2.46  92 2.46 114 2.46 124 2.46
  21  0.750  0.000  0.375-  93 2.46  79 2.46 119 2.46 125 2.46
  22  0.750  0.000  0.875-  94 2.46  80 2.46 120 2.46 126 2.46
  23  0.750  0.500  0.375-  77 2.46  95 2.46 117 2.46 127 2.46
  24  0.750  0.500  0.875-  78 2.46  96 2.46 118 2.46 128 2.46
  25  0.250  0.250  0.250-  65 2.46  81 2.46 113 2.46 121 2.46
  26  0.250  0.250  0.750-  66 2.46  82 2.46 114 2.46 122 2.46
  27  0.250  0.750  0.250-  67 2.46  83 2.46 115 2.46 123 2.46
  28  0.250  0.750  0.750-  68 2.46  84 2.46 116 2.46 124 2.46
  29  0.750  0.250  0.250-  69 2.46  85 2.46 117 2.46 125 2.46
  30  0.750  0.250  0.750-  70 2.46  86 2.46 118 2.46 126 2.46
  31  0.750  0.750  0.250-  71 2.46  87 2.46 119 2.46 127 2.46
  32  0.750  0.750  0.750-  72 2.46  88 2.46 120 2.46 128 2.46
  33  0.000  0.250  0.375-  73 2.56 117 2.56 121 2.56  93 2.56
  34  0.000  0.250  0.875-  74 2.56 118 2.56 122 2.56  94 2.56
  35  0.000  0.750  0.375-  75 2.56  95 2.56 119 2.56 123 2.56
  36  0.000  0.750  0.875-  76 2.56  96 2.56 120 2.56 124 2.56
  37  0.500  0.250  0.375-  77 2.56 113 2.56 125 2.56  89 2.56
  38  0.500  0.250  0.875-  78 2.56 114 2.56 126 2.56  90 2.56
  39  0.500  0.750  0.375-  79 2.56  91 2.56 115 2.56 127 2.56
  40  0.500  0.750  0.875-  80 2.56  92 2.56 116 2.56 128 2.56
  41  0.000  0.000  0.250-  69 2.56  83 2.56 119 2.56 121 2.56
  42  0.000  0.000  0.750-  70 2.56  84 2.56 120 2.56 122 2.56
  43  0.000  0.500  0.250-  71 2.56  81 2.56 117 2.56 123 2.56
  44  0.000  0.500  0.750-  72 2.56  82 2.56 118 2.56 124 2.56
  45  0.500  0.000  0.250-  65 2.56  87 2.56 115 2.56 125 2.56
  46  0.500  0.000  0.750-  66 2.56  88 2.56 116 2.56 126 2.56
  47  0.500  0.500  0.250-  67 2.56  85 2.56 113 2.56 127 2.56
  48  0.500  0.500  0.750-  68 2.56  86 2.56 114 2.56 128 2.56
  49  0.250  0.000  0.125-  65 2.56  83 2.56 107 2.56  97 2.56
  50  0.250  0.000  0.625-  66 2.56  84 2.56 108 2.56  98 2.56
  51  0.250  0.500  0.125-  67 2.56  81 2.56 105 2.56  99 2.56
  52  0.250  0.500  0.625-  68 2.56  82 2.56 106 2.56 100 2.56
  53  0.750  0.000  0.125-  69 2.56  87 2.56 101 2.56 111 2.56
  54  0.750  0.000  0.625-  70 2.56  88 2.56 102 2.56 112 2.56
  55  0.750  0.500  0.125-  71 2.56  85 2.56 103 2.56 109 2.56
  56  0.750  0.500  0.625-  72 2.56  86 2.56 104 2.56 110 2.56
  57  0.250  0.250  0.000-  74 2.56 105 2.56  97 2.56  90 2.56
  58  0.250  0.250  0.500-  73 2.56 106 2.56  98 2.56  89 2.56
  59  0.250  0.750  0.000-  76 2.56  92 2.56 107 2.56  99 2.56
  60  0.250  0.750  0.500-  75 2.56  91 2.56 108 2.56 100 2.56
  61  0.750  0.250  0.000-  78 2.56 101 2.56 109 2.56  94 2.56
  62  0.750  0.250  0.500-  77 2.56 102 2.56 110 2.56  93 2.56
  63  0.750  0.750  0.000-  80 2.56  96 2.56 103 2.56 111 2.56
  64  0.750  0.750  0.500-  79 2.56  95 2.56 104 2.56 112 2.56
  65  0.375  0.132  0.188-   5 2.46  25 2.46  45 2.56  49 2.56
  66  0.375  0.132  0.688-   6 2.46  26 2.46  46 2.56  50 2.56
  67  0.375  0.632  0.188-   7 2.46  27 2.46  47 2.56  51 2.56
  68  0.375  0.632  0.688-   8 2.46  28 2.46  48 2.56  52 2.56
  69  0.875  0.132  0.188-   1 2.46  29 2.46  41 2.56  53 2.56
  70  0.875  0.132  0.688-   2 2.46  30 2.46  42 2.56  54 2.56
  71  0.875  0.632  0.188-   3 2.46  31 2.46  43 2.56  55 2.56
  72  0.875  0.632  0.688-   4 2.46  32 2.46  44 2.56  56 2.56
  73  0.125  0.382  0.438-  12 2.46  19 2.46  33 2.56  58 2.56
  74  0.125  0.382  0.938-  11 2.46  20 2.46  34 2.56  57 2.56
  75  0.125  0.882  0.438-  10 2.46  17 2.46  35 2.56  60 2.56
  76  0.125  0.882  0.938-   9 2.46  18 2.46  36 2.56  59 2.56
  77  0.625  0.382  0.438-  16 2.46  23 2.46  37 2.56  62 2.56
  78  0.625  0.382  0.938-  15 2.46  24 2.46  38 2.56  61 2.56
  79  0.625  0.882  0.438-  14 2.46  21 2.46  39 2.56  64 2.56
  80  0.625  0.882  0.938-  13 2.46  22 2.46  40 2.56  63 2.56
  81  0.125  0.368  0.188-   1 2.46  25 2.46  43 2.56  51 2.56
  82  0.125  0.368  0.688-   2 2.46  26 2.46  44 2.56  52 2.56
  83  0.125  0.868  0.188-   3 2.46  27 2.46  41 2.56  49 2.56
  84  0.125  0.868  0.688-   4 2.46  28 2.46  42 2.56  50 2.56
  85  0.625  0.368  0.188-   5 2.46  29 2.46  47 2.56  55 2.56
  86  0.625  0.368  0.688-   6 2.46  30 2.46  48 2.56  56 2.56
  87  0.625  0.868  0.188-   7 2.46  31 2.46  45 2.56  53 2.56
  88  0.625  0.868  0.688-   8 2.46  32 2.46  46 2.56  54 2.56
  89  0.375  0.117  0.438-  14 2.46  17 2.46  37 2.56  58 2.56
  90  0.375  0.117  0.938-  13 2.46  18 2.46  38 2.56  57 2.56
  91  0.375  0.618  0.438-  16 2.46  19 2.46  39 2.56  60 2.56
  92  0.375  0.618  0.938-  15 2.46  20 2.46  40 2.56  59 2.56
  93  0.875  0.117  0.438-  10 2.46  21 2.46  33 2.56  62 2.56
  94  0.875  0.117  0.938-   9 2.46  22 2.46  34 2.56  61 2.56
  95  0.875  0.618  0.438-  12 2.46  23 2.46  35 2.56  64 2.56
  96  0.875  0.618  0.938-  11 2.46  24 2.46  36 2.56  63 2.56
  97  0.117  0.125  0.063-   1 2.46   9 2.46  49 2.56  57 2.56
  98  0.117  0.125  0.563-   2 2.46  10 2.46  50 2.56  58 2.56
  99  0.117  0.625  0.063-   3 2.46  11 2.46  51 2.56  59 2.56
 100  0.117  0.625  0.563-   4 2.46  12 2.46  52 2.56  60 2.56
 101  0.618  0.125  0.063-   5 2.46  13 2.46  53 2.56  61 2.56
 102  0.618  0.125  0.563-   6 2.46  14 2.46  54 2.56  62 2.56
 103  0.618  0.625  0.063-   7 2.46  15 2.46  55 2.56  63 2.56
 104  0.618  0.625  0.563-   8 2.46  16 2.46  56 2.56  64 2.56
 105  0.382  0.375  0.063-   5 2.46  15 2.46  51 2.56  57 2.56
 106  0.382  0.375  0.563-   6 2.46  16 2.46  52 2.56  58 2.56
 107  0.382  0.875  0.063-   7 2.46  13 2.46  49 2.56  59 2.56
 108  0.382  0.875  0.563-   8 2.46  14 2.46  50 2.56  60 2.56
 109  0.882  0.375  0.063-   1 2.46  11 2.46  55 2.56  61 2.56
 110  0.882  0.375  0.563-   2 2.46  12 2.46  56 2.56  62 2.56
 111  0.882  0.875  0.063-   3 2.46   9 2.46  53 2.56  63 2.56
 112  0.882  0.875  0.563-   4 2.46  10 2.46  54 2.56  64 2.56
 113  0.368  0.375  0.313-  19 2.46  25 2.46  37 2.56  47 2.56
 114  0.368  0.375  0.813-  20 2.46  26 2.46  38 2.56  48 2.56
 115  0.368  0.875  0.313-  17 2.46  27 2.46  39 2.56  45 2.56
 116  0.368  0.875  0.813-  18 2.46  28 2.46  40 2.56  46 2.56
 117  0.868  0.375  0.313-  23 2.46  29 2.46  33 2.56  43 2.56
 118  0.868  0.375  0.813-  24 2.46  30 2.46  34 2.56  44 2.56
 119  0.868  0.875  0.313-  21 2.46  31 2.46  35 2.56  41 2.56
 120  0.868  0.875  0.813-  22 2.46  32 2.46  36 2.56  42 2.56
 121  0.132  0.125  0.313-  17 2.46  25 2.46  33 2.56  41 2.56
 122  0.132  0.125  0.813-  18 2.46  26 2.46  34 2.56  42 2.56
 123  0.132  0.625  0.313-  19 2.46  27 2.46  35 2.56  43 2.56
 124  0.132  0.625  0.813-  20 2.46  28 2.46  36 2.56  44 2.56
 125  0.632  0.125  0.313-  21 2.46  29 2.46  37 2.56  45 2.56
 126  0.632  0.125  0.813-  22 2.46  30 2.46  38 2.56  46 2.56
 127  0.632  0.625  0.313-  23 2.46  31 2.46  39 2.56  47 2.56
 128  0.632  0.625  0.813-  24 2.46  32 2.46  40 2.56  48 2.56
 
  LATTYP: Found a simple tetragonal cell.
 ALAT       =    11.5648002625
 C/A-ratio  =     2.0094077700
  
  Lattice vectors:
  
 A1 = (  11.5648002625,   0.0000000000,   0.0000000000)
 A2 = (   0.0000000000,  11.5648002625,   0.0000000000)
 A3 = (   0.0000000000,   0.0000000000,  23.2383995056)


Analysis of symmetry for initial positions (statically):
=====================================================================
 Subroutine PRICEL returns following result:
 
  LATTYP: Found a body centered tetragonal cell.
 ALAT       =     5.7824001313
 C/A-ratio  =     2.0094077700
  
  Lattice vectors:
  
 A1 = (   2.8912000656,  -2.8912000656,  -5.8095998764)
 A2 = (  -2.8912000656,   2.8912000656,  -5.8095998764)
 A3 = (   2.8912000656,   2.8912000656,   5.8095998764)
 
  16 primitive cells build up your supercell.
 

 Routine SETGRP: Setting up the symmetry group for a 
 simple tetragonal supercell.


 Subroutine GETGRP returns: Found  8 space group operations
 (whereof  4 operations were pure point group operations)
 out of a pool of 16 trial point group operations.


The static configuration has the point symmetry S_4 .
 The point group associated with its full space group is D_2d.


Analysis of symmetry for dynamics (positions and initial velocities):
=====================================================================
 Subroutine PRICEL returns following result:
 
  LATTYP: Found a body centered tetragonal cell.
 ALAT       =     5.7824001313
 C/A-ratio  =     2.0094077700
  
  Lattice vectors:
  
 A1 = (   2.8912000656,  -2.8912000656,  -5.8095998764)
 A2 = (  -2.8912000656,   2.8912000656,  -5.8095998764)
 A3 = (   2.8912000656,   2.8912000656,   5.8095998764)
 
  16 primitive cells build up your supercell.
 

 Routine SETGRP: Setting up the symmetry group for a 
 simple tetragonal supercell.


 Subroutine GETGRP returns: Found  8 space group operations
 (whereof  4 operations were pure point group operations)
 out of a pool of 16 trial point group operations.


The dynamic configuration has the point symmetry S_4 .
 The point group associated with its full space group is D_2d.


 Subroutine INISYM returns: Found  8 space group operations
 (whereof  4 operations are pure point group operations),
 and found    16 'primitive' translations


----------------------------------------------------------------------------------------

                                     Primitive cell                                     

  volume of cell :     194.2507

  direct lattice vectors                    reciprocal lattice vectors
     2.891200066 -2.891200066 -5.809599876     0.172938568  0.000000000 -0.086064447
    -2.891200066  2.891200066 -5.809599876    -0.000000000  0.172938568 -0.086064447
     2.891200066  2.891200066  5.809599876     0.172938568  0.172938568  0.000000000

  length of vectors
     7.104190761  7.104190761  7.104190761     0.193170488  0.193170488  0.244572069

  position of ions in fractional coordinates (direct lattice)
     0.750000000  0.250000000  0.500000000
     0.000000000  0.000000000  0.000000000
     0.250000000  0.750000000  0.500000000
     0.500000000  0.500000000  0.000000000
     0.375000000  0.889999986  0.014999986
     0.875000000  0.360000014  0.985000014
     0.110000000  0.125000000  0.485000000
     0.639999986  0.625000000  0.514999986

  ion indices of the primitive-cell ions
   primitive index   ion index
                 1           1
                 2           9
                 3          33
                 4          41
                 5          69
                 6          81
                 7          97
                 8         109

----------------------------------------------------------------------------------------

 
 
 KPOINTS: KPOINTS                                 

Automatic generation of k-mesh.
 Grid dimensions read from file:
 generate k-points for:    2    2    2

 Generating k-lattice:

  Cartesian coordinates                     Fractional coordinates (reciprocal lattice)
     0.043234642  0.000000000  0.000000000     0.500000000  0.000000000  0.000000000
     0.000000000  0.043234642  0.000000000     0.000000000  0.500000000  0.000000000
     0.000000000  0.000000000  0.021516112     0.000000000  0.000000000  0.500000000

  Length of vectors
     0.043234642  0.043234642  0.021516112

  Shift w.r.t. Gamma in fractional coordinates (k-lattice)
     0.000000000  0.000000000  0.000000000

 
 Subroutine IBZKPT returns following result:
 ===========================================
 
 Found      6 irreducible k-points:
 
 Following reciprocal coordinates:
            Coordinates               Weight
  0.000000  0.000000  0.000000      1.000000
  0.500000  0.000000  0.000000      2.000000
  0.500000  0.500000  0.000000      1.000000
  0.000000  0.000000  0.500000      1.000000
  0.500000  0.000000  0.500000      2.000000
  0.500000  0.500000  0.500000      1.000000
 
 Following cartesian coordinates:
            Coordinates               Weight
  0.000000  0.000000  0.000000      1.000000
  0.043235  0.000000  0.000000      2.000000
  0.043235  0.043235  0.000000      1.000000
  0.000000  0.000000  0.021516      1.000000
  0.043235  0.000000  0.021516      2.000000
  0.043235  0.043235  0.021516      1.000000
 
 
 Subroutine IBZKPT_HF returns following result:
 ==============================================
 
 Found      8 k-points in 1st BZ
 the following      8 k-points will be used (e.g. in the exchange kernel)
 Following reciprocal coordinates:   # in IRBZ
  0.000000  0.000000  0.000000    0.12500000   1 t-inv F
  0.500000  0.000000  0.000000    0.12500000   2 t-inv F
  0.500000  0.500000  0.000000    0.12500000   3 t-inv F
  0.000000  0.000000  0.500000    0.12500000   4 t-inv F
  0.500000  0.000000  0.500000    0.12500000   5 t-inv F
  0.500000  0.500000  0.500000    0.12500000   6 t-inv F
  0.000000 -0.500000 -0.000000    0.12500000   2 t-inv F
  0.000000 -0.500000 -0.500000    0.12500000   5 t-inv F


--------------------------------------------------------------------------------------------------------




 Dimension of arrays:
   k-points           NKPTS =      6   k-points in BZ     NKDIM =      8   number of bands    NBANDS=    691
   number of dos      NEDOS =    301   number of ions     NIONS =    128
   non local maximal  LDIM  =      6   non local SUM 2l+1 LMDIM =     18
   total plane-waves  NPLWV = ******
   max r-space proj   IRMAX =      1   max aug-charges    IRDMAX=  25025
   dimension x,y,z NGX =    96 NGY =   96 NGZ =  192
   dimension x,y,z NGXF=   192 NGYF=  192 NGZF=  384
   support grid    NGXF=   192 NGYF=  192 NGZF=  384
   ions per type =              32  32  64
   NGX,Y,Z   is equivalent  to a cutoff of  13.80, 13.80, 13.74 a.u.
   NGXF,Y,Z  is equivalent  to a cutoff of  27.60, 27.60, 27.47 a.u.

 SYSTEM =  CuInSe                                  
 POSCAR =  Cu1-In1-Se2 'I -4 2 d'  #122            

 Startparameter for this run:
   NWRITE =      2    write-flag & timer
   PREC   = accura    normal or accurate (medium, high low for compatibility)
   ISTART =      0    job   : 0-new  1-cont  2-samecut
   ICHARG =      2    charge: 1-file 2-atom 10-const
   ISPIN  =      1    spin polarized calculation?
   LNONCOLLINEAR =      F non collinear calculations
   LSORBIT =      F    spin-orbit coupling
   INIWAV =      1    electr: 0-lowe 1-rand  2-diag
   LASPH  =      F    aspherical Exc in radial PAW
 Electronic Relaxation 1
   ENCUT  =  600.0 eV  44.10 Ry    6.64 a.u.  23.10 23.10 46.41*2*pi/ulx,y,z
   ENINI  =  600.0     initial cutoff
   ENAUG  =  516.5 eV  augmentation charge cutoff
   NELM   =     60;   NELMIN=  3; NELMDL=  0     # of ELM steps 
   EDIFF  = 0.1E-04   stopping-criterion for ELM
   LREAL  =      F    real-space projection
   NLSPLINE    = F    spline interpolate recip. space projectors
   LCOMPAT=      F    compatible to vasp.4.4
   GGA_COMPAT  = T    GGA compatible to vasp.4.4-vasp.4.6
   LMAXPAW     = -100 max onsite density
   LMAXMIX     =    4 max onsite mixed and CHGCAR
   VOSKOWN=      0    Vosko Wilk Nusair interpolation
   ROPT   =    0.00000   0.00000   0.00000
 Ionic relaxation
   EDIFFG = 0.1E-03   stopping-criterion for IOM
   NSW    =      0    number of steps for IOM
   NBLOCK =      1;   KBLOCK =      1    inner block; outer block 
   IBRION =     -1    ionic relax: 0-MD 1-quasi-New 2-CG
   NFREE  =      0    steps in history (QN), initial steepest desc. (CG)
   ISIF   =      0    stress and relaxation
   IWAVPR =     10    prediction:  0-non 1-charg 2-wave 3-comb
   ISYM   =      3    0-nonsym 1-usesym 2-fastsym
   LCORR  =      T    Harris-Foulkes like correction to forces

   POTIM  = 0.5000    time-step for ionic-motion
   TEIN   =    0.0    initial temperature
   TEBEG  =    0.0;   TEEND  =   0.0 temperature during run
   SMASS  =  -3.00    Nose mass-parameter (am)
   estimated Nose-frequenzy (Omega)   =  0.10E-29 period in steps = 0.13E+47 mass=  -0.306E-26a.u.
   SCALEE = 1.0000    scale energy and forces
   NPACO  =    256;   APACO  = 10.0  distance and # of slots for P.C.
   PSTRESS=    0.0 pullay stress

  Mass of Ions in am
   POMASS =  63.55114.82 78.96
  Ionic Valenz
   ZVAL   =  11.00 13.00  6.00
  Atomic Wigner-Seitz radii
   RWIGS  =  -1.00 -1.00 -1.00
  virtual crystal weights 
   VCA    =   1.00  1.00  1.00
   NELECT =    1152.0000    total number of electrons
   NUPDOWN=      -1.0000    fix difference up-down

 DOS related values:
   EMIN   =  10.00;   EMAX   =-10.00  energy-range for DOS
   EFERMI =   0.00;   METHOD = LEGACY      
   ISMEAR =     0;   SIGMA  =   0.01  broadening in eV -4-tet -1-fermi 0-gaus
   EFERMI_NEDOS =   21; number of points for ismear=-14 and -15

 Electronic relaxation 2 (details)
   IALGO  =     38    algorithm
   LDIAG  =      T    sub-space diagonalisation (order eigenvalues)
   LSUBROT=      F    optimize rotation matrix (better conditioning)
   LROBUST=      F    robust break criterion during scf (extrapolated energy error)
   ISEARCH=      0    line search for conjugate gradient (0, 1=use gradient)
   TURBO    =      0    0=normal 1=particle mesh
   IRESTART =      0    0=no restart 2=restart with 2 vectors
   NREBOOT  =      0    no. of reboots
   NMIN     =      0    reboot dimension
   EREF     =   0.00    reference energy to select bands
   IMIX   =      1    mixing-type and parameters
     AMIX     =   0.40;   BMIX     =  1.00
     AMIX_MAG =   1.60;   BMIX_MAG =  1.00
     AMIN     =   0.10
     WC   =   100.;   INIMIX=   1;  MIXPRE=   1;  MAXMIX= -45

 Intra band minimization:
   WEIMIN = 0.0000     energy-eigenvalue tresh-hold
   EBREAK =  0.36E-08  absolut break condition
   DEPER  =   0.30     relativ break condition  

   TIME   =   0.40     timestep for ELM

  volume/ion in A,a.u.               =      24.28       163.86
  Fermi-wavevector in a.u.,A,eV,Ry     =   1.175975  2.222271 18.815737  1.382918
  Thomas-Fermi vector in A             =   2.312347
 
 Write flags
   LWAVE        =      T    write WAVECAR
   LDOWNSAMPLE  =      F    k-point downsampling of WAVECAR
   LCHARG       =      T    write CHGCAR
   LVTOT        =      F    write LOCPOT, total local potential
   LVHAR        =      F    write LOCPOT, Hartree potential only
   WRT_POTENTIAL= false  ! write potential to hdf5 file
   LELF         =      F    write electronic localiz. function (ELF)
   LORBIT       =      0    0 simple, 1 ext, 2 COOP (PROOUT), +10 PAW based schemes


 Python interface
   PLUGINS active      =      F    recompile with -DPLUGINS to activate
 
 Dipole corrections
   LMONO      =      F    monopole corrections only (constant potential shift)
   LDIPOL     =      F    correct potential (dipole corrections)
   IDIPOL     =      0    1-x, 2-y, 3-z, 4-all directions 
   EPSILON    =  1.0000000 bulk dielectric constant
   LVACPOTAV  =      F  vacuum potentials using an averaging scheme for the charge density
   VACPOTFLAT =  0.1000000 required flatness to determine vacuum potential
 
Coulomb truncation method
  LTRUNCATE          =      F  Coulomb kernel truncation to be used

 
 Exchange correlation treatment:
   GGA     = PE    functional components
   XC_C    = 1    coefficients multiplying the functional components
   LIBXC   =     F    Libxc                    
   VOSKOWN =     0    Vosko Wilk Nusair interpolation
   EXXOEP  =     0    0=HF, 1=EXX-LHF (local Hartree Fock) 2=EXX OEP
   LHFCALC =     T    Hartree Fock is set to
   LSYMGRAD=     F    symmetrize gradient (conserves proper symmetry)
   PRECFOCK=normal    Normal, Fast or Accurate (Low or Medium for compatibility)
   LRHFCALC=     F    long range Hartree Fock
   LRSCOR  =     F    long range correlation only (use DFT for short range part)
   LTHOMAS =     F    Thomas Fermi screening in HF
   LMODELHF=     F    short range full HF, long range fraction AEXX
   FOCKCORR=     1    mode to apply convergence corrections
   LFOCKACE=     T    use Adeptively-Compressed-Exchange operator
   ENCUT4O =  -1.0   cutoff for four orbital integrals eV
   LMAXFOCK=     4    L truncation for augmentation on plane wave grid
   LMAXFOCKAE=  -1    L truncation for all-electron charge restoration on plane wave grid
   NMAXFOCKAE=   1    number of basis functions for all-electron charge restoration
   LFOCKAEDFT=     F  apply the AE augmentation even for DFT
   NKREDX  =     2    reduce k-point grid by
   NKREDY  =     2    reduce k-point grid by
   NKREDZ  =     2    reduce k-point grid by
   SHIFTRED=     F    shift reduced grid of Gamma
   HFKIDENT=     F    idential grid for each k-point
   ODDONLY =     F    use only odd q-grid points
   EVENONLY=     F    use only even q-grid points
   HFALPHA =   -1.0000 decay constant for conv. correction
   MCALPHA =    0.0000 extent of test-charge in conv. correction in multipole expansion
   AEXX    =    0.2500 exact exchange contribution
   HFSCREEN=    0.2000 screening length (either q_TF or 0.3 A-1)
   HFSCREENC=   0.2000 screening length for correlation (either q_TF or 0.3 A-1)
   HFRCUT  =    0.0000 spherical cutoff for potential kernel
   ALDAX   =    0.7500 LDA exchange part
   AGGAX   =    0.7500 GGA exchange part
   AMGGAX  =    0.7500 meta-GGA exchange part
   ALDAC   =    1.0000 LDA correlation
   AGGAC   =    1.0000 GGA correlation
   AMGGAC  =    1.0000 meta-GGA correlation
   ENCUTFOCK=  -1.0 apply spherical cutoff to Coloumb kernel
   NBANDSGWLOW=     1    first orbital included in HF term
   NBLOCK_FOCK=    64    blocking factor in FOCK_ACC

 Parameters of functionals:
   PE:
     No parameter
 
 Van der Waals corrections
   IVDW    =     0    specifies the selected vdW correction

 Linear response parameters
   LEPSILON=     F    determine dielectric tensor
   LRPA    =     F    only Hartree local field effects (RPA)
   LNABLA  =     F    use nabla operator in PAW spheres
   LVEL    =     F    velocity operator in full k-point grid
   CSHIFT  =0.1000    complex shift for real part using Kramers Kronig
   OMEGAMAX=  -1.0    maximum frequency
   DEG_THRESHOLD= 0.2000000E-02 threshold for treating states as degnerate
   RTIME   =   -0.100 relaxation time in fs
  (WPLASMAI=    0.000 imaginary part of plasma frequency in eV, 0.658/RTIME)
   DFIELD  = 0.0000000 0.0000000 0.0000000 field for delta impulse in time
 
  Optional k-point grid parameters
   LKPOINTS_OPT  =     F    use optional k-point grid
   KPOINTS_OPT_MODE=     1    mode for optional k-point grid
 
 Orbital magnetization related:
   ORBITALMAG=     F  switch on orbital magnetization
   LCHIMAG   =     F  perturbation theory with respect to B field
   DQ        =  0.001000  dq finite difference perturbation B field
   LLRAUG    =     F  two centre corrections for induced B field
   LBONE     =     F  B-component reconstruction in AE one-centre
   LVGVCALC  =     T  calculate vGv susceptibility
   LVGVAPPL  =     F  apply vGv susceptibility instead of pGv for G=0

 Random number generation:
   RANDOM_GENERATOR = DEFAULT
   PCG_SEED         = not used


--------------------------------------------------------------------------------------------------------


 Static calculation
 charge density and potential will be updated during run
 non-spin polarized calculation
 Variant of blocked Davidson
 Davidson routine will perform the subspace rotation
 perform sub-space diagonalisation
    after iterative eigenvector-optimisation
 Kerker-like  mixing scheme
 using additional bands           115
 reciprocal scheme for non local part
 use partial core corrections
 calculate Harris-corrections to forces 
   (improved forces if not selfconsistent)
 use gradient corrections 
 use of overlap-Matrix (Vanderbilt PP)
 Gauss-broadening in eV      SIGMA  =   0.01


--------------------------------------------------------------------------------------------------------


  energy-cutoff  :      600.00
  volume of cell :     3108.01
      direct lattice vectors                 reciprocal lattice vectors
    11.564800263  0.000000000  0.000000000     0.086469284  0.000000000  0.000000000
     0.000000000 11.564800263  0.000000000     0.000000000  0.086469284  0.000000000
     0.000000000  0.000000000 23.238399506     0.000000000  0.000000000  0.043032223

  length of vectors
    11.564800263 11.564800263 23.238399506     0.086469284  0.086469284  0.043032223


 
 k-points in units of 2pi/SCALE and weight: KPOINTS                                 
   0.00000000  0.00000000  0.00000000       0.125
   0.04323464  0.00000000  0.00000000       0.250
   0.04323464  0.04323464  0.00000000       0.125
   0.00000000  0.00000000  0.02151611       0.125
   0.04323464  0.00000000  0.02151611       0.250
   0.04323464  0.04323464  0.02151611       0.125
 
 k-points in reciprocal lattice and weights: KPOINTS                                 
   0.00000000  0.00000000  0.00000000       0.125
   0.50000000  0.00000000  0.00000000       0.250
   0.50000000  0.50000000  0.00000000       0.125
   0.00000000  0.00000000  0.50000000       0.125
   0.50000000  0.00000000  0.50000000       0.250
   0.50000000  0.50000000  0.50000000       0.125
 
 position of ions in fractional coordinates (direct lattice) 
   0.00000000  0.25000000  0.12500000
   0.00000000  0.25000000  0.62500000
   0.00000000  0.75000000  0.12500000
   0.00000000  0.75000000  0.62500000
   0.50000000  0.25000000  0.12500000
   0.50000000  0.25000000  0.62500000
   0.50000000  0.75000000  0.12500000
   0.50000000  0.75000000  0.62500000
   0.00000000  0.00000000  0.00000000
   0.00000000  0.00000000  0.50000000
   0.00000000  0.50000000  0.00000000
   0.00000000  0.50000000  0.50000000
   0.50000000  0.00000000  0.00000000
   0.50000000  0.00000000  0.50000000
   0.50000000  0.50000000  0.00000000
   0.50000000  0.50000000  0.50000000
   0.25000000  0.00000000  0.37500000
   0.25000000  0.00000000  0.87500000
   0.25000000  0.50000000  0.37500000
   0.25000000  0.50000000  0.87500000
   0.75000000  0.00000000  0.37500000
   0.75000000  0.00000000  0.87500000
   0.75000000  0.50000000  0.37500000
   0.75000000  0.50000000  0.87500000
   0.25000000  0.25000000  0.25000000
   0.25000000  0.25000000  0.75000000
   0.25000000  0.75000000  0.25000000
   0.25000000  0.75000000  0.75000000
   0.75000000  0.25000000  0.25000000
   0.75000000  0.25000000  0.75000000
   0.75000000  0.75000000  0.25000000
   0.75000000  0.75000000  0.75000000
   0.00000000  0.25000000  0.37500000
   0.00000000  0.25000000  0.87500000
   0.00000000  0.75000000  0.37500000
   0.00000000  0.75000000  0.87500000
   0.50000000  0.25000000  0.37500000
   0.50000000  0.25000000  0.87500000
   0.50000000  0.75000000  0.37500000
   0.50000000  0.75000000  0.87500000
   0.00000000  0.00000000  0.25000000
   0.00000000  0.00000000  0.75000000
   0.00000000  0.50000000  0.25000000
   0.00000000  0.50000000  0.75000000
   0.50000000  0.00000000  0.25000000
   0.50000000  0.00000000  0.75000000
   0.50000000  0.50000000  0.25000000
   0.50000000  0.50000000  0.75000000
   0.25000000  0.00000000  0.12500000
   0.25000000  0.00000000  0.62500000
   0.25000000  0.50000000  0.12500000
   0.25000000  0.50000000  0.62500000
   0.75000000  0.00000000  0.12500000
   0.75000000  0.00000000  0.62500000
   0.75000000  0.50000000  0.12500000
   0.75000000  0.50000000  0.62500000
   0.25000000  0.25000000  0.00000000
   0.25000000  0.25000000  0.50000000
   0.25000000  0.75000000  0.00000000
   0.25000000  0.75000000  0.50000000
   0.75000000  0.25000000  0.00000000
   0.75000000  0.25000000  0.50000000
   0.75000000  0.75000000  0.00000000
   0.75000000  0.75000000  0.50000000
   0.37500000  0.13249999  0.18750000
   0.37500000  0.13249999  0.68750000
   0.37500000  0.63249999  0.18750000
   0.37500000  0.63249999  0.68750000
   0.87500000  0.13249999  0.18750000
   0.87500000  0.13249999  0.68750000
   0.87500000  0.63249999  0.18750000
   0.87500000  0.63249999  0.68750000
   0.12500000  0.38249999  0.43750000
   0.12500000  0.38249999  0.93750000
   0.12500000  0.88249999  0.43750000
   0.12500000  0.88249999  0.93750000
   0.62500000  0.38249999  0.43750000
   0.62500000  0.38249999  0.93750000
   0.62500000  0.88249999  0.43750000
   0.62500000  0.88249999  0.93750000
   0.12500000  0.36750001  0.18750000
   0.12500000  0.36750001  0.68750000
   0.12500000  0.86750001  0.18750000
   0.12500000  0.86750001  0.68750000
   0.62500000  0.36750001  0.18750000
   0.62500000  0.36750001  0.68750000
   0.62500000  0.86750001  0.18750000
   0.62500000  0.86750001  0.68750000
   0.37500000  0.11750000  0.43750000
   0.37500000  0.11750000  0.93750000
   0.37500000  0.61750001  0.43750000
   0.37500000  0.61750001  0.93750000
   0.87500000  0.11750000  0.43750000
   0.87500000  0.11750000  0.93750000
   0.87500000  0.61750001  0.43750000
   0.87500000  0.61750001  0.93750000
   0.11750000  0.12500000  0.06250000
   0.11750000  0.12500000  0.56250000
   0.11750000  0.62500000  0.06250000
   0.11750000  0.62500000  0.56250000
   0.61750001  0.12500000  0.06250000
   0.61750001  0.12500000  0.56250000
   0.61750001  0.62500000  0.06250000
   0.61750001  0.62500000  0.56250000
   0.38249999  0.37500000  0.06250000
   0.38249999  0.37500000  0.56250000
   0.38249999  0.87500000  0.06250000
   0.38249999  0.87500000  0.56250000
   0.88249999  0.37500000  0.06250000
   0.88249999  0.37500000  0.56250000
   0.88249999  0.87500000  0.06250000
   0.88249999  0.87500000  0.56250000
   0.36750001  0.37500000  0.31250000
   0.36750001  0.37500000  0.81250000
   0.36750001  0.87500000  0.31250000
   0.36750001  0.87500000  0.81250000
   0.86750001  0.37500000  0.31250000
   0.86750001  0.37500000  0.81250000
   0.86750001  0.87500000  0.31250000
   0.86750001  0.87500000  0.81250000
   0.13249999  0.12500000  0.31250000
   0.13249999  0.12500000  0.81250000
   0.13249999  0.62500000  0.31250000
   0.13249999  0.62500000  0.81250000
   0.63249999  0.12500000  0.31250000
   0.63249999  0.12500000  0.81250000
   0.63249999  0.62500000  0.31250000
   0.63249999  0.62500000  0.81250000
 
 position of ions in cartesian coordinates  (Angst):
   0.00000000  2.89120007  2.90479994
   0.00000000  2.89120007 14.52399969
   0.00000000  8.67360020  2.90479994
   0.00000000  8.67360020 14.52399969
   5.78240013  2.89120007  2.90479994
   5.78240013  2.89120007 14.52399969
   5.78240013  8.67360020  2.90479994
   5.78240013  8.67360020 14.52399969
   0.00000000  0.00000000  0.00000000
   0.00000000  0.00000000 11.61919975
   0.00000000  5.78240013  0.00000000
   0.00000000  5.78240013 11.61919975
   5.78240013  0.00000000  0.00000000
   5.78240013  0.00000000 11.61919975
   5.78240013  5.78240013  0.00000000
   5.78240013  5.78240013 11.61919975
   2.89120007  0.00000000  8.71439981
   2.89120007  0.00000000 20.33359957
   2.89120007  5.78240013  8.71439981
   2.89120007  5.78240013 20.33359957
   8.67360020  0.00000000  8.71439981
   8.67360020  0.00000000 20.33359957
   8.67360020  5.78240013  8.71439981
   8.67360020  5.78240013 20.33359957
   2.89120007  2.89120007  5.80959988
   2.89120007  2.89120007 17.42879963
   2.89120007  8.67360020  5.80959988
   2.89120007  8.67360020 17.42879963
   8.67360020  2.89120007  5.80959988
   8.67360020  2.89120007 17.42879963
   8.67360020  8.67360020  5.80959988
   8.67360020  8.67360020 17.42879963
   0.00000000  2.89120007  8.71439981
   0.00000000  2.89120007 20.33359957
   0.00000000  8.67360020  8.71439981
   0.00000000  8.67360020 20.33359957
   5.78240013  2.89120007  8.71439981
   5.78240013  2.89120007 20.33359957
   5.78240013  8.67360020  8.71439981
   5.78240013  8.67360020 20.33359957
   0.00000000  0.00000000  5.80959988
   0.00000000  0.00000000 17.42879963
   0.00000000  5.78240013  5.80959988
   0.00000000  5.78240013 17.42879963
   5.78240013  0.00000000  5.80959988
   5.78240013  0.00000000 17.42879963
   5.78240013  5.78240013  5.80959988
   5.78240013  5.78240013 17.42879963
   2.89120007  0.00000000  2.90479994
   2.89120007  0.00000000 14.52399969
   2.89120007  5.78240013  2.90479994
   2.89120007  5.78240013 14.52399969
   8.67360020  0.00000000  2.90479994
   8.67360020  0.00000000 14.52399969
   8.67360020  5.78240013  2.90479994
   8.67360020  5.78240013 14.52399969
   2.89120007  2.89120007  0.00000000
   2.89120007  2.89120007 11.61919975
   2.89120007  8.67360020  0.00000000
   2.89120007  8.67360020 11.61919975
   8.67360020  2.89120007  0.00000000
   8.67360020  2.89120007 11.61919975
   8.67360020  8.67360020  0.00000000
   8.67360020  8.67360020 11.61919975
   4.33680010  1.53233595  4.35719991
   4.33680010  1.53233595 15.97639966
   4.33680010  7.31473609  4.35719991
   4.33680010  7.31473609 15.97639966
  10.11920023  1.53233595  4.35719991
  10.11920023  1.53233595 15.97639966
  10.11920023  7.31473609  4.35719991
  10.11920023  7.31473609 15.97639966
   1.44560003  4.42353602 10.16679978
   1.44560003  4.42353602 21.78599954
   1.44560003 10.20593615 10.16679978
   1.44560003 10.20593615 21.78599954
   7.22800016  4.42353602 10.16679978
   7.22800016  4.42353602 21.78599954
   7.22800016 10.20593615 10.16679978
   7.22800016 10.20593615 21.78599954
   1.44560003  4.25006418  4.35719991
   1.44560003  4.25006418 15.97639966
   1.44560003 10.03246431  4.35719991
   1.44560003 10.03246431 15.97639966
   7.22800016  4.25006418  4.35719991
   7.22800016  4.25006418 15.97639966
   7.22800016 10.03246431  4.35719991
   7.22800016 10.03246431 15.97639966
   4.33680010  1.35886403 10.16679978
   4.33680010  1.35886403 21.78599954
   4.33680010  7.14126424 10.16679978
   4.33680010  7.14126424 21.78599954
  10.11920023  1.35886403 10.16679978
  10.11920023  1.35886403 21.78599954
  10.11920023  7.14126424 10.16679978
  10.11920023  7.14126424 21.78599954
   1.35886403  1.44560003  1.45239997
   1.35886403  1.44560003 13.07159972
   1.35886403  7.22800016  1.45239997
   1.35886403  7.22800016 13.07159972
   7.14126424  1.44560003  1.45239997
   7.14126424  1.44560003 13.07159972
   7.14126424  7.22800016  1.45239997
   7.14126424  7.22800016 13.07159972
   4.42353602  4.33680010  1.45239997
   4.42353602  4.33680010 13.07159972
   4.42353602 10.11920023  1.45239997
   4.42353602 10.11920023 13.07159972
  10.20593615  4.33680010  1.45239997
  10.20593615  4.33680010 13.07159972
  10.20593615 10.11920023  1.45239997
  10.20593615 10.11920023 13.07159972
   4.25006418  4.33680010  7.26199985
   4.25006418  4.33680010 18.88119960
   4.25006418 10.11920023  7.26199985
   4.25006418 10.11920023 18.88119960
  10.03246431  4.33680010  7.26199985
  10.03246431  4.33680010 18.88119960
  10.03246431 10.11920023  7.26199985
  10.03246431 10.11920023 18.88119960
   1.53233595  1.44560003  7.26199985
   1.53233595  1.44560003 18.88119960
   1.53233595  7.22800016  7.26199985
   1.53233595  7.22800016 18.88119960
   7.31473609  1.44560003  7.26199985
   7.31473609  1.44560003 18.88119960
   7.31473609  7.22800016  7.26199985
   7.31473609  7.22800016 18.88119960
 


--------------------------------------------------------------------------------------------------------


 k-point     1 :   0.0000 0.0000 0.0000  plane waves:  103737
 k-point     2 :   0.5000 0.0000 0.0000  plane waves:  103746
 k-point     3 :   0.5000 0.5000 0.0000  plane waves:  103776
 k-point     4 :   0.0000 0.0000 0.5000  plane waves:  103620
 k-point     5 :   0.5000 0.0000 0.5000  plane waves:  103728
 k-point     6 :   0.5000 0.5000 0.5000  plane waves:  103688

 maximum and minimum number of plane-waves per node :    103776   103620

 maximum number of plane-waves:    103776
 maximum index in each direction: 
   IXMAX=   23   IYMAX=   23   IZMAX=   46
   IXMIN=  -23   IYMIN=  -23   IZMIN=  -46


 serial   3D FFT for wavefunctions
 parallel 3D FFT for charge:
    minimum data exchange during FFTs selected (reduces bandwidth)


 FFT grid for exact exchange (Hartree Fock) 
  NGX = 70; NGY = 70; NGZ =140

 
 Radii for the augmentation spheres in the non-local exchange
 for species   1 augmentation radius   1.218 (default was   1.005)
       energy cutoff for augmentation   2400.0
 for species   2 augmentation radius   1.347 (default was   1.077)
       energy cutoff for augmentation   2400.0
 for species   3 augmentation radius   1.152 (default was   1.081)
       energy cutoff for augmentation   2400.0
 Maximum index for augmentation-charges in exchange          2277
  SETUP_FOCK is finished

 total amount of memory used by VASP MPI-rank0  9046365. kBytes
=======================================================================

   base                                    :      30000. kBytes
   nonl-proj                               :     481520. kBytes
   fftplans                                :     483948. kBytes
   grid                                    :     980434. kBytes
   one-center                              :       1990. kBytes
   HF                                      :        194. kBytes
   nonlr-proj                              :      52584. kBytes
   wavefun                                 :    7015695. kBytes
 
     INWAV:  cpu time      0.0000: real time      0.0000
 initial charge density was supplied:
 charge density of overlapping atoms calculated
 number of electron    1152.0000000 magnetization 
 keeping initial charge density in first step


--------------------------------------------------------------------------------------------------------


 Maximum index for augmentation-charges         24086 (set IRDMAX)


--------------------------------------------------------------------------------------------------------


 First call to EWALD:  gamma=   0.121
 Maximum number of real-space cells   3x   3x   2
 Maximum number of reciprocal cells   2x   2x   4

    FEWALD:  cpu time      0.3588: real time      0.3596


--------------------------------------- Ionic step        1  -------------------------------------------




--------------------------------------- Iteration      1(   1)  ---------------------------------------


    POTLOK:  cpu time      0.0526: real time      0.0528
    SETDIJ:  cpu time      0.1792: real time      0.1797
     EDDAV:  cpu time     21.3128: real time     21.5176
       DOS:  cpu time      0.0009: real time      0.0009
    --------------------------------------------
      LOOP:  cpu time     21.5459: real time     21.7513

 eigenvalue-minimisations  :  8292
 total energy-change (2. order) :-0.6702005E+05  (-0.5167023E+05)
 number of electron    1152.0000000 magnetization 
 augmentation part     1152.0000000 magnetization 

 Free energy of the ion-electron system (eV)
  ---------------------------------------------------
  alpha Z        PSCENC =      3590.49188669
  Ewald energy   TEWEN  =    -75122.05347602
  -Hartree energ DENC   =    -36129.95408452
  -exchange      EXHF   =         0.00000000
  -V(xc)+E(xc)   XCENC  =      2689.61918491
  PAW double counting   =     80361.77678867  -162278.69869501
  entropy T*S    EENTRO =        -0.00182518
  eigenvalues    EBANDS =      8768.16760845
  atomic energy  EATOM  =    111100.60618623
  Solvation  Ediel_sol  =         0.00000000
  ---------------------------------------------------
  free energy    TOTEN  =    -67020.04642578 eV

  energy without entropy =   -67020.04460060  energy(sigma->0) =   -67020.04551319
  exchange ACFDT corr.  =         0.00000000  see jH, gK, PRB 81, 115126


--------------------------------------------------------------------------------------------------------




--------------------------------------- Iteration      1(   2)  ---------------------------------------


     EDDAV:  cpu time      8.8147: real time      8.8454
       DOS:  cpu time      0.0009: real time      0.0009
    --------------------------------------------
      LOOP:  cpu time      8.8156: real time      8.8463

 eigenvalue-minimisations  :  8292
 total energy-change (2. order) :-0.1195282E+05  (-0.1169350E+05)
 number of electron    1152.0000000 magnetization 
 augmentation part     1152.0000000 magnetization 

 Free energy of the ion-electron system (eV)
  ---------------------------------------------------
  alpha Z        PSCENC =      3590.49188669
  Ewald energy   TEWEN  =    -75122.05347602
  -Hartree energ DENC   =    -36129.95408452
  -exchange      EXHF   =         0.00000000
  -V(xc)+E(xc)   XCENC  =      2689.61918491
  PAW double counting   =     80361.77678867  -162278.69869501
  entropy T*S    EENTRO =        -0.00194856
  eigenvalues    EBANDS =     -3184.64840522
  atomic energy  EATOM  =    111100.60618623
  Solvation  Ediel_sol  =         0.00000000
  ---------------------------------------------------
  free energy    TOTEN  =    -78972.86256283 eV

  energy without entropy =   -78972.86061427  energy(sigma->0) =   -78972.86158855
  exchange ACFDT corr.  =         0.00000000  see jH, gK, PRB 81, 115126


--------------------------------------------------------------------------------------------------------




--------------------------------------- Iteration      1(   3)  ---------------------------------------


     EDDAV:  cpu time      9.1325: real time      9.2176
       DOS:  cpu time      0.0005: real time      0.0005
    --------------------------------------------
      LOOP:  cpu time      9.1330: real time      9.2181

 eigenvalue-minimisations  :  8695
 total energy-change (2. order) :-0.2834811E+04  (-0.2654739E+04)
 number of electron    1152.0000000 magnetization 
 augmentation part     1152.0000000 magnetization 

 Free energy of the ion-electron system (eV)
  ---------------------------------------------------
  alpha Z        PSCENC =      3590.49188669
  Ewald energy   TEWEN  =    -75122.05347602
  -Hartree energ DENC   =    -36129.95408452
  -exchange      EXHF   =         0.00000000
  -V(xc)+E(xc)   XCENC  =      2689.61918491
  PAW double counting   =     80361.77678867  -162278.69869501
  entropy T*S    EENTRO =        -0.00000000
  eigenvalues    EBANDS =     -6019.46140373
  atomic energy  EATOM  =    111100.60618623
  Solvation  Ediel_sol  =         0.00000000
  ---------------------------------------------------
  free energy    TOTEN  =    -81807.67361278 eV

  energy without entropy =   -81807.67361278  energy(sigma->0) =   -81807.67361278
  exchange ACFDT corr.  =         0.00000000  see jH, gK, PRB 81, 115126


--------------------------------------------------------------------------------------------------------




--------------------------------------- Iteration      1(   4)  ---------------------------------------


     EDDAV:  cpu time     10.1119: real time     10.1477
       DOS:  cpu time      0.0006: real time      0.0006
    --------------------------------------------
      LOOP:  cpu time     10.1125: real time     10.1483

 eigenvalue-minimisations  :  9832
 total energy-change (2. order) :-0.3649006E+03  (-0.3572462E+03)
 number of electron    1152.0000000 magnetization 
 augmentation part     1152.0000000 magnetization 

 Free energy of the ion-electron system (eV)
  ---------------------------------------------------
  alpha Z        PSCENC =      3590.49188669
  Ewald energy   TEWEN  =    -75122.05347602
  -Hartree energ DENC   =    -36129.95408452
  -exchange      EXHF   =         0.00000000
  -V(xc)+E(xc)   XCENC  =      2689.61918491
  PAW double counting   =     80361.77678867  -162278.69869501
  entropy T*S    EENTRO =        -0.00000000
  eigenvalues    EBANDS =     -6384.36201699
  atomic energy  EATOM  =    111100.60618623
  Solvation  Ediel_sol  =         0.00000000
  ---------------------------------------------------
  free energy    TOTEN  =    -82172.57422604 eV

  energy without entropy =   -82172.57422604  energy(sigma->0) =   -82172.57422604
  exchange ACFDT corr.  =         0.00000000  see jH, gK, PRB 81, 115126


--------------------------------------------------------------------------------------------------------




--------------------------------------- Iteration      1(   5)  ---------------------------------------


    POTLOK:  cpu time     12.1386: real time     12.1759
    SETDIJ:  cpu time      0.3170: real time      0.3179
     EDDAV:  cpu time     97.5103: real time     98.1215
       DOS:  cpu time      0.0006: real time      0.0006
    CHARGE:  cpu time      0.6281: real time      0.6298
    MIXING:  cpu time      0.0429: real time      0.0431
    --------------------------------------------
      LOOP:  cpu time    110.6371: real time    111.2884

 eigenvalue-minimisations  : 10024
 total energy-change (2. order) : 0.8149886E+05  (-0.6540568E+02)
 number of electron    1151.9999780 magnetization 
 augmentation part      394.1255216 magnetization 

 Free energy of the ion-electron system (eV)
  ---------------------------------------------------
  alpha Z        PSCENC =      3590.49188669
  Ewald energy   TEWEN  =    -75122.05347602
  -Hartree energ DENC   =    -36129.95408452
  -exchange      EXHF   =      2663.69854538
  -V(xc)+E(xc)   XCENC  =      2001.70111127
  PAW double counting   =     80981.54612387   -84139.69796555
  entropy T*S    EENTRO =        -0.00000000
  eigenvalues    EBANDS =     -5620.05278247
  atomic energy  EATOM  =    111100.60618623
  Solvation  Ediel_sol  =         0.00000000
  ---------------------------------------------------
  free energy    TOTEN  =      -673.71445512 eV

  energy without entropy =     -673.71445512  energy(sigma->0) =     -673.71445512
  exchange ACFDT corr.  =         0.00000000  see jH, gK, PRB 81, 115126


--------------------------------------------------------------------------------------------------------




--------------------------------------- Iteration      1(   6)  ---------------------------------------


    POTLOK:  cpu time     12.2945: real time     12.3241
    SETDIJ:  cpu time      0.3139: real time      0.3147
     EDDAV:  cpu time     98.2358: real time     98.8399
       DOS:  cpu time      0.0005: real time      0.0005
    CHARGE:  cpu time      0.5860: real time      0.6092
    MIXING:  cpu time      0.0429: real time      0.0430
    --------------------------------------------
      LOOP:  cpu time    111.4737: real time    112.1315

 eigenvalue-minimisations  : 11752
 total energy-change (2. order) : 0.4977680E+01  (-0.5584713E+01)
 number of electron    1151.9999650 magnetization 
 augmentation part      390.5876593 magnetization 

 Free energy of the ion-electron system (eV)
  ---------------------------------------------------
  alpha Z        PSCENC =      3590.49188669
  Ewald energy   TEWEN  =    -75122.05347602
  -Hartree energ DENC   =    -36161.40501742
  -exchange      EXHF   =      2598.41897135
  -V(xc)+E(xc)   XCENC  =      2009.39890285
  PAW double counting   =     82274.21608502   -85462.26657888
  entropy T*S    EENTRO =        -0.00000000
  eigenvalues    EBANDS =     -5496.14373511
  atomic energy  EATOM  =    111100.60618623
  Solvation  Ediel_sol  =         0.00000000
  ---------------------------------------------------
  free energy    TOTEN  =      -668.73677530 eV

  energy without entropy =     -668.73677530  energy(sigma->0) =     -668.73677530
  exchange ACFDT corr.  =         0.00000000  see jH, gK, PRB 81, 115126


--------------------------------------------------------------------------------------------------------




--------------------------------------- Iteration      1(   7)  ---------------------------------------


    POTLOK:  cpu time     12.1260: real time     12.2604
    SETDIJ:  cpu time      0.3165: real time      0.3174
     EDDAV:  cpu time     98.2158: real time     98.9123
       DOS:  cpu time      0.0006: real time      0.0005
    CHARGE:  cpu time      0.5945: real time      0.5963
    MIXING:  cpu time      0.0429: real time      0.0430
    --------------------------------------------
      LOOP:  cpu time    111.2962: real time    112.1300

 eigenvalue-minimisations  : 12000
 total energy-change (2. order) : 0.2722311E+01  (-0.2192677E+01)
 number of electron    1151.9999570 magnetization 
 augmentation part      394.3636543 magnetization 

 Free energy of the ion-electron system (eV)
  ---------------------------------------------------
  alpha Z        PSCENC =      3590.49188669
  Ewald energy   TEWEN  =    -75122.05347602
  -Hartree energ DENC   =    -35985.04594401
  -exchange      EXHF   =      2574.61048885
  -V(xc)+E(xc)   XCENC  =      2007.63096492
  PAW double counting   =     82773.95315296   -85921.79769075
  entropy T*S    EENTRO =        -0.00000000
  eigenvalues    EBANDS =     -5684.41003355
  atomic energy  EATOM  =    111100.60618623
  Solvation  Ediel_sol  =         0.00000000
  ---------------------------------------------------
  free energy    TOTEN  =      -666.01446470 eV

  energy without entropy =     -666.01446470  energy(sigma->0) =     -666.01446470
  exchange ACFDT corr.  =         0.00000000  see jH, gK, PRB 81, 115126


--------------------------------------------------------------------------------------------------------




--------------------------------------- Iteration      1(   8)  ---------------------------------------


    POTLOK:  cpu time     12.2510: real time     12.3354
    SETDIJ:  cpu time      0.3139: real time      0.3155
     EDDAV:  cpu time     96.3872: real time     97.0988
       DOS:  cpu time      0.0006: real time      0.0006
    CHARGE:  cpu time      0.5970: real time      0.5987
    MIXING:  cpu time      0.0429: real time      0.0431
    --------------------------------------------
      LOOP:  cpu time    109.5925: real time    110.3921

 eigenvalue-minimisations  :  9832
 total energy-change (2. order) :-0.4503545E+00  (-0.7592697E+00)
 number of electron    1151.9999522 magnetization 
 augmentation part      394.5159024 magnetization 

 Free energy of the ion-electron system (eV)
  ---------------------------------------------------
  alpha Z        PSCENC =      3590.49188669
  Ewald energy   TEWEN  =    -75122.05347602
  -Hartree energ DENC   =    -35997.64895018
  -exchange      EXHF   =      2579.18834309
  -V(xc)+E(xc)   XCENC  =      2010.09596633
  PAW double counting   =     83308.30209472   -86497.74206074
  entropy T*S    EENTRO =        -0.00000000
  eigenvalues    EBANDS =     -5637.70480930
  atomic energy  EATOM  =    111100.60618623
  Solvation  Ediel_sol  =         0.00000000
  ---------------------------------------------------
  free energy    TOTEN  =      -666.46481918 eV

  energy without entropy =     -666.46481918  energy(sigma->0) =     -666.46481918
  exchange ACFDT corr.  =         0.00000000  see jH, gK, PRB 81, 115126


--------------------------------------------------------------------------------------------------------




--------------------------------------- Iteration      1(   9)  ---------------------------------------


    POTLOK:  cpu time     12.3154: real time     12.3502
    SETDIJ:  cpu time      0.3142: real time      0.3151
     EDDAV:  cpu time     96.8363: real time     97.5164
       DOS:  cpu time      0.0006: real time      0.0005
    CHARGE:  cpu time      0.6004: real time      0.6023
    MIXING:  cpu time      0.0429: real time      0.0430
    --------------------------------------------
      LOOP:  cpu time    110.1098: real time    110.8275

 eigenvalue-minimisations  : 10360
 total energy-change (2. order) : 0.4772609E-01  (-0.5084375E-01)
 number of electron    1151.9999494 magnetization 
 augmentation part      393.9799817 magnetization 

 Free energy of the ion-electron system (eV)
  ---------------------------------------------------
  alpha Z        PSCENC =      3590.49188669
  Ewald energy   TEWEN  =    -75122.05347602
  -Hartree energ DENC   =    -35997.24756715
  -exchange      EXHF   =      2575.16708659
  -V(xc)+E(xc)   XCENC  =      2011.01004377
  PAW double counting   =     83656.38942686   -86870.17590181
  entropy T*S    EENTRO =        -0.00000000
  eigenvalues    EBANDS =     -5610.60477825
  atomic energy  EATOM  =    111100.60618623
  Solvation  Ediel_sol  =         0.00000000
  ---------------------------------------------------
  free energy    TOTEN  =      -666.41709309 eV

  energy without entropy =     -666.41709309  energy(sigma->0) =     -666.41709309
  exchange ACFDT corr.  =         0.00000000  see jH, gK, PRB 81, 115126


--------------------------------------------------------------------------------------------------------




--------------------------------------- Iteration      1(  10)  ---------------------------------------


    POTLOK:  cpu time     12.0700: real time     12.1927
    SETDIJ:  cpu time      0.4732: real time      0.4747
     EDDAV:  cpu time     97.4653: real time     98.1542
       DOS:  cpu time      0.0006: real time      0.0005
    CHARGE:  cpu time      0.5968: real time      0.5987
    MIXING:  cpu time      0.0429: real time      0.0430
    --------------------------------------------
      LOOP:  cpu time    110.6487: real time    111.4639

 eigenvalue-minimisations  : 11136
 total energy-change (2. order) : 0.5577228E-01  (-0.1758818E-01)
 number of electron    1151.9999477 magnetization 
 augmentation part      394.0273075 magnetization 

 Free energy of the ion-electron system (eV)
  ---------------------------------------------------
  alpha Z        PSCENC =      3590.49188669
  Ewald energy   TEWEN  =    -75122.05347602
  -Hartree energ DENC   =    -35977.68785761
  -exchange      EXHF   =      2573.03354792
  -V(xc)+E(xc)   XCENC  =      2010.91097114
  PAW double counting   =     83835.33724552   -87057.06400799
  entropy T*S    EENTRO =        -0.00000000
  eigenvalues    EBANDS =     -5619.93581669
  atomic energy  EATOM  =    111100.60618623
  Solvation  Ediel_sol  =         0.00000000
  ---------------------------------------------------
  free energy    TOTEN  =      -666.36132081 eV

  energy without entropy =     -666.36132081  energy(sigma->0) =     -666.36132081
  exchange ACFDT corr.  =         0.00000000  see jH, gK, PRB 81, 115126


--------------------------------------------------------------------------------------------------------




--------------------------------------- Iteration      1(  11)  ---------------------------------------


    POTLOK:  cpu time     12.1973: real time     12.3142
    SETDIJ:  cpu time      0.3142: real time      0.3151
     EDDAV:  cpu time     97.2216: real time     97.8930
       DOS:  cpu time      0.0005: real time      0.0005
    CHARGE:  cpu time      0.5942: real time      0.5960
    MIXING:  cpu time      0.0429: real time      0.0430
    --------------------------------------------
      LOOP:  cpu time    110.3708: real time    111.1619

 eigenvalue-minimisations  : 10784
 total energy-change (2. order) : 0.9000109E-02  (-0.4829402E-02)
 number of electron    1151.9999467 magnetization 
 augmentation part      393.9507510 magnetization 

 Free energy of the ion-electron system (eV)
  ---------------------------------------------------
  alpha Z        PSCENC =      3590.49188669
  Ewald energy   TEWEN  =    -75122.05347602
  -Hartree energ DENC   =    -35972.30051200
  -exchange      EXHF   =      2573.83343443
  -V(xc)+E(xc)   XCENC  =      2011.08648090
  PAW double counting   =     83947.37245268   -87177.48894810
  entropy T*S    EENTRO =        -0.00000000
  eigenvalues    EBANDS =     -5617.89982550
  atomic energy  EATOM  =    111100.60618623
  Solvation  Ediel_sol  =         0.00000000
  ---------------------------------------------------
  free energy    TOTEN  =      -666.35232070 eV

  energy without entropy =     -666.35232070  energy(sigma->0) =     -666.35232070
  exchange ACFDT corr.  =         0.00000000  see jH, gK, PRB 81, 115126


--------------------------------------------------------------------------------------------------------




--------------------------------------- Iteration      1(  12)  ---------------------------------------


    POTLOK:  cpu time     12.2922: real time     12.3258
    SETDIJ:  cpu time      0.3139: real time      0.3149
     EDDAV:  cpu time     96.6272: real time     97.4038
       DOS:  cpu time      0.0006: real time      0.0006
    CHARGE:  cpu time      0.5928: real time      0.5945
    MIXING:  cpu time      0.0429: real time      0.0432
    --------------------------------------------
      LOOP:  cpu time    109.8695: real time    110.6828

 eigenvalue-minimisations  : 10208
 total energy-change (2. order) :-0.8369916E-03  (-0.9864212E-03)
 number of electron    1151.9999460 magnetization 
 augmentation part      393.9315774 magnetization 

 Free energy of the ion-electron system (eV)
  ---------------------------------------------------
  alpha Z        PSCENC =      3590.49188669
  Ewald energy   TEWEN  =    -75122.05347602
  -Hartree energ DENC   =    -35968.81671858
  -exchange      EXHF   =      2574.03226671
  -V(xc)+E(xc)   XCENC  =      2011.19989265
  PAW double counting   =     84012.53662226   -87246.81995346
  entropy T*S    EENTRO =        -0.00000000
  eigenvalues    EBANDS =     -5617.52986416
  atomic energy  EATOM  =    111100.60618623
  Solvation  Ediel_sol  =         0.00000000
  ---------------------------------------------------
  free energy    TOTEN  =      -666.35315769 eV

  energy without entropy =     -666.35315769  energy(sigma->0) =     -666.35315769
  exchange ACFDT corr.  =         0.00000000  see jH, gK, PRB 81, 115126


--------------------------------------------------------------------------------------------------------




--------------------------------------- Iteration      1(  13)  ---------------------------------------


    POTLOK:  cpu time     12.2415: real time     12.2758
    SETDIJ:  cpu time      0.3144: real time      0.3152
     EDDAV:  cpu time     96.8081: real time     97.5002
       DOS:  cpu time      0.0005: real time      0.0005
    CHARGE:  cpu time      0.5951: real time      0.5969
    MIXING:  cpu time      0.0429: real time      0.0430
    --------------------------------------------
      LOOP:  cpu time    110.0025: real time    110.7317

 eigenvalue-minimisations  : 10360
 total energy-change (2. order) :-0.1291438E-02  (-0.2228922E-03)
 number of electron    1151.9999457 magnetization 
 augmentation part      393.9330629 magnetization 

 Free energy of the ion-electron system (eV)
  ---------------------------------------------------
  alpha Z        PSCENC =      3590.49188669
  Ewald energy   TEWEN  =    -75122.05347602
  -Hartree energ DENC   =    -35967.17359859
  -exchange      EXHF   =      2574.14451410
  -V(xc)+E(xc)   XCENC  =      2011.28867504
  PAW double counting   =     84051.56674653   -87288.26670723
  entropy T*S    EENTRO =        -0.00000000
  eigenvalues    EBANDS =     -5616.95867587
  atomic energy  EATOM  =    111100.60618623
  Solvation  Ediel_sol  =         0.00000000
  ---------------------------------------------------
  free energy    TOTEN  =      -666.35444913 eV

  energy without entropy =     -666.35444913  energy(sigma->0) =     -666.35444913
  exchange ACFDT corr.  =         0.00000000  see jH, gK, PRB 81, 115126


--------------------------------------------------------------------------------------------------------




--------------------------------------- Iteration      1(  14)  ---------------------------------------


    POTLOK:  cpu time     12.2062: real time     12.3397
    SETDIJ:  cpu time      0.3139: real time      0.3146
     EDDAV:  cpu time     96.5960: real time     97.2212
       DOS:  cpu time      0.0005: real time      0.0005
    CHARGE:  cpu time      0.5983: real time      0.5999
    MIXING:  cpu time      0.0429: real time      0.0430
    --------------------------------------------
      LOOP:  cpu time    109.7578: real time    110.5189

 eigenvalue-minimisations  : 10016
 total energy-change (2. order) :-0.1032720E-02  (-0.1167572E-03)
 number of electron    1151.9999455 magnetization 
 augmentation part      393.9280111 magnetization 

 Free energy of the ion-electron system (eV)
  ---------------------------------------------------
  alpha Z        PSCENC =      3590.49188669
  Ewald energy   TEWEN  =    -75122.05347602
  -Hartree energ DENC   =    -35966.78000001
  -exchange      EXHF   =      2574.19273840
  -V(xc)+E(xc)   XCENC  =      2011.36071044
  PAW double counting   =     84075.87415029   -87314.17084938
  entropy T*S    EENTRO =        -0.00000000
  eigenvalues    EBANDS =     -5615.87682848
  atomic energy  EATOM  =    111100.60618623
  Solvation  Ediel_sol  =         0.00000000
  ---------------------------------------------------
  free energy    TOTEN  =      -666.35548185 eV

  energy without entropy =     -666.35548185  energy(sigma->0) =     -666.35548185
  exchange ACFDT corr.  =         0.00000000  see jH, gK, PRB 81, 115126


--------------------------------------------------------------------------------------------------------




--------------------------------------- Iteration      1(  15)  ---------------------------------------


    POTLOK:  cpu time     12.3897: real time     12.4188
    SETDIJ:  cpu time      0.3137: real time      0.3146
     EDDAV:  cpu time     95.7827: real time     96.5550
       DOS:  cpu time      0.0005: real time      0.0005
    CHARGE:  cpu time      0.5924: real time      0.5939
    MIXING:  cpu time      0.0430: real time      0.0431
    --------------------------------------------
      LOOP:  cpu time    109.1220: real time    109.9258

 eigenvalue-minimisations  :  9216
 total energy-change (2. order) :-0.7199414E-03  (-0.6173739E-04)
 number of electron    1151.9999453 magnetization 
 augmentation part      393.9271219 magnetization 

 Free energy of the ion-electron system (eV)
  ---------------------------------------------------
  alpha Z        PSCENC =      3590.49188669
  Ewald energy   TEWEN  =    -75122.05347602
  -Hartree energ DENC   =    -35966.60288671
  -exchange      EXHF   =      2574.17749486
  -V(xc)+E(xc)   XCENC  =      2011.40344676
  PAW double counting   =     84090.64570254   -87329.85184925
  entropy T*S    EENTRO =        -0.00000000
  eigenvalues    EBANDS =     -5615.17270689
  atomic energy  EATOM  =    111100.60618623
  Solvation  Ediel_sol  =         0.00000000
  ---------------------------------------------------
  free energy    TOTEN  =      -666.35620179 eV

  energy without entropy =     -666.35620179  energy(sigma->0) =     -666.35620179
  exchange ACFDT corr.  =         0.00000000  see jH, gK, PRB 81, 115126


--------------------------------------------------------------------------------------------------------




--------------------------------------- Iteration      1(  16)  ---------------------------------------


    POTLOK:  cpu time     12.3555: real time     12.3827
    SETDIJ:  cpu time      0.3133: real time      0.3141
     EDDAV:  cpu time     95.0322: real time     95.6614
       DOS:  cpu time      0.0005: real time      0.0005
    CHARGE:  cpu time      0.5947: real time      0.5967
    MIXING:  cpu time      0.0429: real time      0.0430
    --------------------------------------------
      LOOP:  cpu time    108.3392: real time    108.9984

 eigenvalue-minimisations  :  8232
 total energy-change (2. order) :-0.4342830E-03  (-0.3292584E-04)
 number of electron    1151.9999452 magnetization 
 augmentation part      393.9253691 magnetization 

 Free energy of the ion-electron system (eV)
  ---------------------------------------------------
  alpha Z        PSCENC =      3590.49188669
  Ewald energy   TEWEN  =    -75122.05347602
  -Hartree energ DENC   =    -35966.61854937
  -exchange      EXHF   =      2574.17151342
  -V(xc)+E(xc)   XCENC  =      2011.43151254
  PAW double counting   =     84099.69357447   -87339.47608988
  entropy T*S    EENTRO =        -0.00000000
  eigenvalues    EBANDS =     -5614.60319416
  atomic energy  EATOM  =    111100.60618623
  Solvation  Ediel_sol  =         0.00000000
  ---------------------------------------------------
  free energy    TOTEN  =      -666.35663607 eV

  energy without entropy =     -666.35663607  energy(sigma->0) =     -666.35663607
  exchange ACFDT corr.  =         0.00000000  see jH, gK, PRB 81, 115126


--------------------------------------------------------------------------------------------------------




--------------------------------------- Iteration      1(  17)  ---------------------------------------


    POTLOK:  cpu time     12.1957: real time     12.3251
    SETDIJ:  cpu time      0.3144: real time      0.3152
     EDDAV:  cpu time     94.9938: real time     95.6645
       DOS:  cpu time      0.0005: real time      0.0005
    CHARGE:  cpu time      0.5985: real time      0.6002
    MIXING:  cpu time      0.0429: real time      0.0430
    --------------------------------------------
      LOOP:  cpu time    108.1458: real time    108.9486

 eigenvalue-minimisations  :  8224
 total energy-change (2. order) :-0.2411255E-03  (-0.1639444E-04)
 number of electron    1151.9999452 magnetization 
 augmentation part      393.9247268 magnetization 

 Free energy of the ion-electron system (eV)
  ---------------------------------------------------
  alpha Z        PSCENC =      3590.49188669
  Ewald energy   TEWEN  =    -75122.05347602
  -Hartree energ DENC   =    -35966.65750986
  -exchange      EXHF   =      2574.16296945
  -V(xc)+E(xc)   XCENC  =      2011.44822203
  PAW double counting   =     84105.19458847   -87345.32210119
  entropy T*S    EENTRO =        -0.00000000
  eigenvalues    EBANDS =     -5614.22764301
  atomic energy  EATOM  =    111100.60618623
  Solvation  Ediel_sol  =         0.00000000
  ---------------------------------------------------
  free energy    TOTEN  =      -666.35687720 eV

  energy without entropy =     -666.35687720  energy(sigma->0) =     -666.35687720
  exchange ACFDT corr.  =         0.00000000  see jH, gK, PRB 81, 115126


--------------------------------------------------------------------------------------------------------




--------------------------------------- Iteration      1(  18)  ---------------------------------------


    POTLOK:  cpu time     12.2360: real time     12.2696
    SETDIJ:  cpu time      0.3136: real time      0.3145
     EDDAV:  cpu time     94.5384: real time     95.2743
       DOS:  cpu time      0.0005: real time      0.0005
    CHARGE:  cpu time      0.5936: real time      0.5953
    MIXING:  cpu time      0.0429: real time      0.0430
    --------------------------------------------
      LOOP:  cpu time    107.7251: real time    108.4974

 eigenvalue-minimisations  :  7752
 total energy-change (2. order) :-0.1280733E-03  (-0.8139759E-05)
 number of electron    1151.9999452 magnetization 
 augmentation part      393.9241156 magnetization 

 Free energy of the ion-electron system (eV)
  ---------------------------------------------------
  alpha Z        PSCENC =      3590.49188669
  Ewald energy   TEWEN  =    -75122.05347602
  -Hartree energ DENC   =    -35966.72116602
  -exchange      EXHF   =      2574.15981363
  -V(xc)+E(xc)   XCENC  =      2011.45889525
  PAW double counting   =     84108.55286437   -87348.88706968
  entropy T*S    EENTRO =        -0.00000000
  eigenvalues    EBANDS =     -5613.96493971
  atomic energy  EATOM  =    111100.60618623
  Solvation  Ediel_sol  =         0.00000000
  ---------------------------------------------------
  free energy    TOTEN  =      -666.35700527 eV

  energy without entropy =     -666.35700527  energy(sigma->0) =     -666.35700527
  exchange ACFDT corr.  =         0.00000000  see jH, gK, PRB 81, 115126


--------------------------------------------------------------------------------------------------------




--------------------------------------- Iteration      1(  19)  ---------------------------------------


    POTLOK:  cpu time     12.2005: real time     12.2786
    SETDIJ:  cpu time      0.3136: real time      0.3147
     EDDAV:  cpu time     94.4485: real time     95.1329
       DOS:  cpu time      0.0005: real time      0.0005
    CHARGE:  cpu time      0.5966: real time      0.5985
    MIXING:  cpu time      0.0429: real time      0.0430
    --------------------------------------------
      LOOP:  cpu time    107.6025: real time    108.3681

 eigenvalue-minimisations  :  7624
 total energy-change (2. order) :-0.6762098E-04  (-0.4219780E-05)
 number of electron    1151.9999452 magnetization 
 augmentation part      393.9238586 magnetization 

 Free energy of the ion-electron system (eV)
  ---------------------------------------------------
  alpha Z        PSCENC =      3590.49188669
  Ewald energy   TEWEN  =    -75122.05347602
  -Hartree energ DENC   =    -35966.78407384
  -exchange      EXHF   =      2574.15833200
  -V(xc)+E(xc)   XCENC  =      2011.46580568
  PAW double counting   =     84110.58369045   -87351.04202847
  entropy T*S    EENTRO =        -0.00000000
  eigenvalues    EBANDS =     -5613.78339560
  atomic energy  EATOM  =    111100.60618623
  Solvation  Ediel_sol  =         0.00000000
  ---------------------------------------------------
  free energy    TOTEN  =      -666.35707289 eV

  energy without entropy =     -666.35707289  energy(sigma->0) =     -666.35707289
  exchange ACFDT corr.  =         0.00000000  see jH, gK, PRB 81, 115126


--------------------------------------------------------------------------------------------------------




--------------------------------------- Iteration      1(  20)  ---------------------------------------


    POTLOK:  cpu time     12.0502: real time     12.1397
    SETDIJ:  cpu time      0.4001: real time      0.4012
     EDDAV:  cpu time     92.9191: real time     93.6326
       DOS:  cpu time      0.0005: real time      0.0005
    CHARGE:  cpu time      0.5953: real time      0.5970
    MIXING:  cpu time      0.0429: real time      0.0430
    --------------------------------------------
      LOOP:  cpu time    106.0082: real time    106.8142

 eigenvalue-minimisations  :  5712
 total energy-change (2. order) :-0.3486426E-04  (-0.2033900E-05)
 number of electron    1151.9999451 magnetization 
 augmentation part      393.9234534 magnetization 

 Free energy of the ion-electron system (eV)
  ---------------------------------------------------
  alpha Z        PSCENC =      3590.49188669
  Ewald energy   TEWEN  =    -75122.05347602
  -Hartree energ DENC   =    -35966.84491274
  -exchange      EXHF   =      2574.15805201
  -V(xc)+E(xc)   XCENC  =      2011.47049988
  PAW double counting   =     84111.81083630   -87352.34240147
  entropy T*S    EENTRO =        -0.00000000
  eigenvalues    EBANDS =     -5613.65377864
  atomic energy  EATOM  =    111100.60618623
  Solvation  Ediel_sol  =         0.00000000
  ---------------------------------------------------
  free energy    TOTEN  =      -666.35710776 eV

  energy without entropy =     -666.35710776  energy(sigma->0) =     -666.35710776
  exchange ACFDT corr.  =         0.00000000  see jH, gK, PRB 81, 115126


--------------------------------------------------------------------------------------------------------




--------------------------------------- Iteration      1(  21)  ---------------------------------------


    POTLOK:  cpu time     12.3229: real time     12.3578
    SETDIJ:  cpu time      0.3144: real time      0.3152
     EDDAV:  cpu time     92.4870: real time     93.1633
       DOS:  cpu time      0.0005: real time      0.0005
    CHARGE:  cpu time      0.5959: real time      0.5977
    MIXING:  cpu time      0.0429: real time      0.0430
    --------------------------------------------
      LOOP:  cpu time    105.7637: real time    106.4776

 eigenvalue-minimisations  :  5264
 total energy-change (2. order) :-0.1800586E-04  (-0.1280444E-05)
 number of electron    1151.9999451 magnetization 
 augmentation part      393.9233405 magnetization 

 Free energy of the ion-electron system (eV)
  ---------------------------------------------------
  alpha Z        PSCENC =      3590.49188669
  Ewald energy   TEWEN  =    -75122.05347602
  -Hartree energ DENC   =    -35966.89575347
  -exchange      EXHF   =      2574.15811197
  -V(xc)+E(xc)   XCENC  =      2011.47370746
  PAW double counting   =     84112.53323758   -87353.10820240
  entropy T*S    EENTRO =        -0.00000000
  eigenvalues    EBANDS =     -5613.56282380
  atomic energy  EATOM  =    111100.60618623
  Solvation  Ediel_sol  =         0.00000000
  ---------------------------------------------------
  free energy    TOTEN  =      -666.35712576 eV

  energy without entropy =     -666.35712576  energy(sigma->0) =     -666.35712576
  exchange ACFDT corr.  =         0.00000000  see jH, gK, PRB 81, 115126


--------------------------------------------------------------------------------------------------------




--------------------------------------- Iteration      1(  22)  ---------------------------------------


    POTLOK:  cpu time     12.1362: real time     12.2771
    SETDIJ:  cpu time      0.3140: real time      0.3148
     EDDAV:  cpu time     92.3256: real time     92.9973
       DOS:  cpu time      0.0006: real time      0.0006
    --------------------------------------------
      LOOP:  cpu time    104.7766: real time    105.5901

 eigenvalue-minimisations  :  5016
 total energy-change (2. order) :-0.9486488E-05  (-0.9045337E-06)
 number of electron    1151.9999451 magnetization 
 augmentation part      393.9233405 magnetization 

 Free energy of the ion-electron system (eV)
  ---------------------------------------------------
  alpha Z        PSCENC =      3590.49188669
  Ewald energy   TEWEN  =    -75122.05347602
  -Hartree energ DENC   =    -35966.93956888
  -exchange      EXHF   =      2574.15831084
  -V(xc)+E(xc)   XCENC  =      2011.47598610
  PAW double counting   =     84112.96287428   -87353.56365823
  entropy T*S    EENTRO =        -0.00000000
  eigenvalues    EBANDS =     -5613.49567625
  atomic energy  EATOM  =    111100.60618623
  Solvation  Ediel_sol  =         0.00000000
  ---------------------------------------------------
  free energy    TOTEN  =      -666.35713525 eV

  energy without entropy =     -666.35713525  energy(sigma->0) =     -666.35713525
  exchange ACFDT corr.  =         0.00000000  see jH, gK, PRB 81, 115126


--------------------------------------------------------------------------------------------------------




 average (electrostatic) potential at core
  the test charge radii are     1.0053  1.0774  1.0808
  (the norm of the test charge is              1.0000)
       1 -31.2382       2 -31.2380       3 -31.2382       4 -31.2380       5 -31.2379
       6 -31.2382       7 -31.2379       8 -31.2382       9 -31.2381      10 -31.2379
      11 -31.2381      12 -31.2381      13 -31.2381      14 -31.2381      15 -31.2382
      16 -31.2380      17 -31.2380      18 -31.2382      19 -31.2383      20 -31.2379
      21 -31.2380      22 -31.2382      23 -31.2383      24 -31.2379      25 -31.2382
      26 -31.2381      27 -31.2381      28 -31.2381      29 -31.2381      30 -31.2381
      31 -31.2381      32 -31.2381      33 -91.8035      34 -91.8035      35 -91.8035
      36 -91.8035      37 -91.8035      38 -91.8035      39 -91.8035      40 -91.8035
      41 -91.8035      42 -91.8035      43 -91.8035      44 -91.8036      45 -91.8036
      46 -91.8035      47 -91.8035      48 -91.8035      49 -91.8036      50 -91.8035
      51 -91.8035      52 -91.8035      53 -91.8036      54 -91.8035      55 -91.8035
      56 -91.8035      57 -91.8035      58 -91.8036      59 -91.8035      60 -91.8036
      61 -91.8035      62 -91.8036      63 -91.8035      64 -91.8036      65 -51.0728
      66 -51.0728      67 -51.0728      68 -51.0728      69 -51.0728      70 -51.0728
      71 -51.0728      72 -51.0728      73 -51.0728      74 -51.0728      75 -51.0728
      76 -51.0728      77 -51.0728      78 -51.0728      79 -51.0728      80 -51.0728
      81 -51.0728      82 -51.0728      83 -51.0728      84 -51.0728      85 -51.0728
      86 -51.0728      87 -51.0728      88 -51.0728      89 -51.0728      90 -51.0728
      91 -51.0728      92 -51.0728      93 -51.0728      94 -51.0728      95 -51.0728
      96 -51.0728      97 -51.0728      98 -51.0728      99 -51.0728     100 -51.0728
     101 -51.0728     102 -51.0728     103 -51.0728     104 -51.0728     105 -51.0728
     106 -51.0728     107 -51.0728     108 -51.0728     109 -51.0728     110 -51.0728
     111 -51.0728     112 -51.0728     113 -51.0728     114 -51.0728     115 -51.0728
     116 -51.0728     117 -51.0728     118 -51.0728     119 -51.0728     120 -51.0728
     121 -51.0728     122 -51.0728     123 -51.0728     124 -51.0728     125 -51.0728
     126 -51.0728     127 -51.0728     128 -51.0728
 
 
 
 E-fermi :   3.2006     XC(G=0):  -7.7472     alpha+bet : -9.0850

 val. band max:        3.1501116120   @ k =   0.0000   0.0000   0.0000
 cond. band min:       4.2014889406   @ k =   0.0000   0.0000   0.0000
 fundamental gap:      1.0513773286
 Fermi energy:         3.2006479961

 k-point     1 :       0.0000    0.0000    0.0000
  band No.  band energies     occupation 
      1     -13.6616      2.00000
      2     -13.6616      2.00000
      3     -13.6616      2.00000
      4     -13.6616      2.00000
      5     -13.6565      2.00000
      6     -13.6565      2.00000
      7     -13.6565      2.00000
      8     -13.6565      2.00000
      9     -13.6558      2.00000
     10     -13.6558      2.00000
     11     -13.6558      2.00000
     12     -13.6558      2.00000
     13     -13.6558      2.00000
     14     -13.6558      2.00000
     15     -13.6558      2.00000
     16     -13.6558      2.00000
     17     -13.6446      2.00000
     18     -13.6446      2.00000
     19     -13.6404      2.00000
     20     -13.6404      2.00000
     21     -13.6404      2.00000
     22     -13.6404      2.00000
     23     -13.6392      2.00000
     24     -13.6392      2.00000
     25     -13.6392      2.00000
     26     -13.6392      2.00000
     27     -13.6363      2.00000
     28     -13.6363      2.00000
     29     -13.6363      2.00000
     30     -13.6363      2.00000
     31     -13.6348      2.00000
     32     -13.6335      2.00000
     33     -13.6335      2.00000
     34     -13.6086      2.00000
     35     -13.6086      2.00000
     36     -13.5898      2.00000
     37     -13.5898      2.00000
     38     -13.5898      2.00000
     39     -13.5898      2.00000
     40     -13.5851      2.00000
     41     -13.5851      2.00000
     42     -13.5851      2.00000
     43     -13.5851      2.00000
     44     -13.5350      2.00000
     45     -13.5350      2.00000
     46     -13.5214      2.00000
     47     -13.5214      2.00000
     48     -13.5214      2.00000
     49     -13.5214      2.00000
     50     -13.5212      2.00000
     51     -13.5212      2.00000
     52     -13.5212      2.00000
     53     -13.5212      2.00000
     54     -13.4583      2.00000
     55     -13.4583      2.00000
     56     -13.4583      2.00000
     57     -13.4583      2.00000
     58     -13.4488      2.00000
     59     -13.4488      2.00000
     60     -13.4488      2.00000
     61     -13.4488      2.00000
     62     -13.4371      2.00000
     63     -13.4371      2.00000
     64     -13.3839      2.00000
     65     -13.3806      2.00000
     66     -13.3806      2.00000
     67     -13.3806      2.00000
     68     -13.3806      2.00000
     69     -13.3769      2.00000
     70     -13.3769      2.00000
     71     -13.3769      2.00000
     72     -13.3769      2.00000
     73     -13.3746      2.00000
     74     -13.3746      2.00000
     75     -13.3746      2.00000
     76     -13.3746      2.00000
     77     -13.3744      2.00000
     78     -13.3744      2.00000
     79     -13.3744      2.00000
     80     -13.3744      2.00000
     81     -13.3597      2.00000
     82     -13.3597      2.00000
     83     -13.3503      2.00000
     84     -13.3503      2.00000
     85     -13.3503      2.00000
     86     -13.3503      2.00000
     87     -13.3499      2.00000
     88     -13.3499      2.00000
     89     -13.3499      2.00000
     90     -13.3499      2.00000
     91     -13.3480      2.00000
     92     -13.3480      2.00000
     93     -13.3480      2.00000
     94     -13.3480      2.00000
     95     -13.3405      2.00000
     96     -13.3405      2.00000
     97     -13.2801      2.00000
     98     -13.2801      2.00000
     99     -13.2784      2.00000
    100     -13.2784      2.00000
    101     -13.2718      2.00000
    102     -13.2691      2.00000
    103     -13.2691      2.00000
    104     -13.2691      2.00000
    105     -13.2691      2.00000
    106     -13.2690      2.00000
    107     -13.2690      2.00000
    108     -13.2690      2.00000
    109     -13.2690      2.00000
    110     -13.2673      2.00000
    111     -13.2673      2.00000
    112     -13.2673      2.00000
    113     -13.2673      2.00000
    114     -13.2671      2.00000
    115     -13.2667      2.00000
    116     -13.2667      2.00000
    117     -13.2667      2.00000
    118     -13.2667      2.00000
    119     -13.2660      2.00000
    120     -13.2660      2.00000
    121     -13.2567      2.00000
    122     -13.2567      2.00000
    123     -13.2567      2.00000
    124     -13.2567      2.00000
    125     -13.2565      2.00000
    126     -13.2565      2.00000
    127     -13.2565      2.00000
    128     -13.2564      2.00000
    129     -13.2545      2.00000
    130     -13.2527      2.00000
    131     -13.2527      2.00000
    132     -13.2507      2.00000
    133     -13.2507      2.00000
    134     -13.2507      2.00000
    135     -13.2507      2.00000
    136     -13.2505      2.00000
    137     -13.2505      2.00000
    138     -13.2505      2.00000
    139     -13.2505      2.00000
    140     -13.2476      2.00000
    141     -13.2476      2.00000
    142     -13.2476      2.00000
    143     -13.2476      2.00000
    144     -13.2475      2.00000
    145     -13.2475      2.00000
    146     -13.2475      2.00000
    147     -13.2475      2.00000
    148     -13.2413      2.00000
    149     -13.2413      2.00000
    150     -13.2413      2.00000
    151     -13.2413      2.00000
    152     -13.2409      2.00000
    153     -13.2409      2.00000
    154     -13.2409      2.00000
    155     -13.2409      2.00000
    156     -13.2389      2.00000
    157     -13.2389      2.00000
    158     -13.2384      2.00000
    159     -13.2348      2.00000
    160     -13.2348      2.00000
    161     -11.9893      2.00000
    162     -11.7752      2.00000
    163     -11.7752      2.00000
    164     -11.3511      2.00000
    165     -11.3511      2.00000
    166     -11.3511      2.00000
    167     -11.3511      2.00000
    168     -11.3229      2.00000
    169     -11.3229      2.00000
    170     -11.3229      2.00000
    171     -11.3229      2.00000
    172     -11.2477      2.00000
    173     -11.2477      2.00000
    174     -10.9711      2.00000
    175     -10.9711      2.00000
    176     -10.9711      2.00000
    177     -10.9711      2.00000
    178     -10.9701      2.00000
    179     -10.9701      2.00000
    180     -10.9701      2.00000
    181     -10.9701      2.00000
    182     -10.9481      2.00000
    183     -10.9481      2.00000
    184     -10.9481      2.00000
    185     -10.9481      2.00000
    186     -10.8070      2.00000
    187     -10.8070      2.00000
    188     -10.8070      2.00000
    189     -10.8070      2.00000
    190     -10.7103      2.00000
    191     -10.7103      2.00000
    192     -10.7103      2.00000
    193     -10.7103      2.00000
    194     -10.6598      2.00000
    195     -10.6598      2.00000
    196     -10.6045      2.00000
    197     -10.6045      2.00000
    198     -10.6045      2.00000
    199     -10.6045      2.00000
    200     -10.6033      2.00000
    201     -10.6033      2.00000
    202     -10.6033      2.00000
    203     -10.6033      2.00000
    204     -10.5212      2.00000
    205     -10.5212      2.00000
    206     -10.5212      2.00000
    207     -10.5212      2.00000
    208     -10.4383      2.00000
    209     -10.4383      2.00000
    210     -10.4383      2.00000
    211     -10.4383      2.00000
    212     -10.3931      2.00000
    213     -10.3931      2.00000
    214     -10.3838      2.00000
    215     -10.3788      2.00000
    216     -10.3788      2.00000
    217     -10.3788      2.00000
    218     -10.3788      2.00000
    219     -10.3644      2.00000
    220     -10.3644      2.00000
    221     -10.3630      2.00000
    222     -10.3630      2.00000
    223     -10.3630      2.00000
    224     -10.3630      2.00000
    225      -3.9202      2.00000
    226      -3.7238      2.00000
    227      -3.7238      2.00000
    228      -3.5950      2.00000
    229      -3.5950      2.00000
    230      -3.5950      2.00000
    231      -3.5950      2.00000
    232      -3.5508      2.00000
    233      -3.5508      2.00000
    234      -3.5508      2.00000
    235      -3.5508      2.00000
    236      -3.4722      2.00000
    237      -3.4722      2.00000
    238      -3.4722      2.00000
    239      -3.4722      2.00000
    240      -3.4436      2.00000
    241      -3.4436      2.00000
    242      -3.4436      2.00000
    243      -3.4436      2.00000
    244      -3.3962      2.00000
    245      -3.3962      2.00000
    246      -3.0298      2.00000
    247      -3.0298      2.00000
    248      -2.9099      2.00000
    249      -2.9099      2.00000
    250      -2.9099      2.00000
    251      -2.9099      2.00000
    252      -2.8627      2.00000
    253      -2.8627      2.00000
    254      -2.8627      2.00000
    255      -2.8627      2.00000
    256      -2.7621      2.00000
    257      -2.2335      2.00000
    258      -2.2335      2.00000
    259      -2.2335      2.00000
    260      -2.2335      2.00000
    261      -2.0587      2.00000
    262      -2.0587      2.00000
    263      -2.0587      2.00000
    264      -2.0587      2.00000
    265      -1.7285      2.00000
    266      -1.7285      2.00000
    267      -1.7285      2.00000
    268      -1.7285      2.00000
    269      -1.6911      2.00000
    270      -1.6911      2.00000
    271      -1.6911      2.00000
    272      -1.6911      2.00000
    273      -1.6726      2.00000
    274      -1.6726      2.00000
    275      -1.6436      2.00000
    276      -1.3945      2.00000
    277      -1.3945      2.00000
    278      -1.3945      2.00000
    279      -1.3945      2.00000
    280      -1.3592      2.00000
    281      -1.3592      2.00000
    282      -1.3592      2.00000
    283      -1.3592      2.00000
    284      -1.2836      2.00000
    285      -1.2498      2.00000
    286      -1.2498      2.00000
    287      -1.2498      2.00000
    288      -1.2498      2.00000
    289      -1.2296      2.00000
    290      -1.2296      2.00000
    291      -1.2207      2.00000
    292      -1.2207      2.00000
    293      -1.2207      2.00000
    294      -1.2207      2.00000
    295      -1.2125      2.00000
    296      -0.9397      2.00000
    297      -0.9397      2.00000
    298      -0.9397      2.00000
    299      -0.9397      2.00000
    300      -0.9277      2.00000
    301      -0.9277      2.00000
    302      -0.8791      2.00000
    303      -0.8791      2.00000
    304      -0.8791      2.00000
    305      -0.8791      2.00000
    306      -0.8536      2.00000
    307      -0.8536      2.00000
    308      -0.8315      2.00000
    309      -0.8315      2.00000
    310      -0.8315      2.00000
    311      -0.8315      2.00000
    312      -0.8163      2.00000
    313      -0.8163      2.00000
    314      -0.8163      2.00000
    315      -0.8163      2.00000
    316      -0.7298      2.00000
    317      -0.7298      2.00000
    318      -0.6487      2.00000
    319      -0.6487      2.00000
    320      -0.6487      2.00000
    321      -0.6487      2.00000
    322      -0.6413      2.00000
    323      -0.6413      2.00000
    324      -0.6413      2.00000
    325      -0.6413      2.00000
    326      -0.6310      2.00000
    327      -0.6310      2.00000
    328      -0.6310      2.00000
    329      -0.6310      2.00000
    330      -0.5937      2.00000
    331      -0.5937      2.00000
    332      -0.5937      2.00000
    333      -0.5937      2.00000
    334      -0.5861      2.00000
    335      -0.5861      2.00000
    336      -0.4429      2.00000
    337      -0.4429      2.00000
    338      -0.4429      2.00000
    339      -0.4429      2.00000
    340      -0.4399      2.00000
    341      -0.4399      2.00000
    342      -0.4399      2.00000
    343      -0.4399      2.00000
    344      -0.4104      2.00000
    345      -0.4103      2.00000
    346      -0.4103      2.00000
    347      -0.4103      2.00000
    348      -0.4060      2.00000
    349      -0.4060      2.00000
    350      -0.3813      2.00000
    351      -0.3813      2.00000
    352      -0.3813      2.00000
    353      -0.3813      2.00000
    354      -0.3762      2.00000
    355      -0.3762      2.00000
    356      -0.3741      2.00000
    357      -0.3741      2.00000
    358      -0.3741      2.00000
    359      -0.3741      2.00000
    360      -0.3733      2.00000
    361      -0.3733      2.00000
    362      -0.3733      2.00000
    363      -0.3733      2.00000
    364      -0.3470      2.00000
    365      -0.3470      2.00000
    366      -0.3470      2.00000
    367      -0.3470      2.00000
    368      -0.3315      2.00000
    369      -0.3315      2.00000
    370      -0.2686      2.00000
    371      -0.2686      2.00000
    372      -0.2175      2.00000
    373      -0.2175      2.00000
    374      -0.2175      2.00000
    375      -0.2175      2.00000
    376      -0.2012      2.00000
    377      -0.2012      2.00000
    378      -0.1929      2.00000
    379      -0.1929      2.00000
    380      -0.1929      2.00000
    381      -0.1929      2.00000
    382      -0.1722      2.00000
    383      -0.1722      2.00000
    384      -0.1722      2.00000
    385      -0.1722      2.00000
    386      -0.1719      2.00000
    387      -0.1320      2.00000
    388      -0.1320      2.00000
    389      -0.1320      2.00000
    390      -0.1320      2.00000
    391      -0.0547      2.00000
    392      -0.0547      2.00000
    393      -0.0380      2.00000
    394      -0.0380      2.00000
    395      -0.0380      2.00000
    396      -0.0380      2.00000
    397      -0.0186      2.00000
    398      -0.0186      2.00000
    399      -0.0186      2.00000
    400      -0.0186      2.00000
    401       0.0411      2.00000
    402       0.0411      2.00000
    403       0.0411      2.00000
    404       0.0411      2.00000
    405       0.0850      2.00000
    406       0.0850      2.00000
    407       0.0850      2.00000
    408       0.0850      2.00000
    409       0.1318      2.00000
    410       0.1318      2.00000
    411       0.1318      2.00000
    412       0.1318      2.00000
    413       0.1429      2.00000
    414       0.1429      2.00000
    415       0.1429      2.00000
    416       0.1429      2.00000
    417       0.6584      2.00000
    418       0.6584      2.00000
    419       0.6906      2.00000
    420       0.7228      2.00000
    421       0.7228      2.00000
    422       0.7434      2.00000
    423       0.7652      2.00000
    424       0.7652      2.00000
    425       0.7652      2.00000
    426       0.7652      2.00000
    427       0.7766      2.00000
    428       0.7767      2.00000
    429       0.7889      2.00000
    430       0.7889      2.00000
    431       0.7889      2.00000
    432       0.7889      2.00000
    433       0.7958      2.00000
    434       0.7963      2.00000
    435       0.7963      2.00000
    436       0.7963      2.00000
    437       0.7963      2.00000
    438       0.7999      2.00000
    439       0.8000      2.00000
    440       0.8000      2.00000
    441       0.8000      2.00000
    442       0.8381      2.00000
    443       0.8382      2.00000
    444       0.8631      2.00000
    445       0.8631      2.00000
    446       0.8631      2.00000
    447       0.8631      2.00000
    448       0.8644      2.00000
    449       0.8644      2.00000
    450       0.8644      2.00000
    451       0.8645      2.00000
    452       0.8991      2.00000
    453       0.8991      2.00000
    454       0.8991      2.00000
    455       0.8991      2.00000
    456       0.9126      2.00000
    457       0.9126      2.00000
    458       0.9168      2.00000
    459       0.9168      2.00000
    460       0.9168      2.00000
    461       0.9168      2.00000
    462       0.9612      2.00000
    463       0.9613      2.00000
    464       1.0723      2.00000
    465       1.0723      2.00000
    466       1.0723      2.00000
    467       1.0723      2.00000
    468       1.1028      2.00000
    469       1.1028      2.00000
    470       1.1028      2.00000
    471       1.1028      2.00000
    472       1.1188      2.00000
    473       1.1652      2.00000
    474       1.1652      2.00000
    475       1.1652      2.00000
    476       1.1652      2.00000
    477       1.2041      2.00000
    478       1.2041      2.00000
    479       1.2041      2.00000
    480       1.2041      2.00000
    481       1.2054      2.00000
    482       1.2054      2.00000
    483       1.2054      2.00000
    484       1.2054      2.00000
    485       1.2124      2.00000
    486       1.2124      2.00000
    487       1.2372      2.00000
    488       1.2372      2.00000
    489       1.2372      2.00000
    490       1.2372      2.00000
    491       1.2704      2.00000
    492       1.2704      2.00000
    493       1.2704      2.00000
    494       1.2704      2.00000
    495       1.2951      2.00000
    496       1.2970      2.00000
    497       1.2970      2.00000
    498       1.4561      2.00000
    499       1.4562      2.00000
    500       1.4562      2.00000
    501       1.4562      2.00000
    502       1.5398      2.00000
    503       1.5398      2.00000
    504       1.5398      2.00000
    505       1.5398      2.00000
    506       1.5839      2.00000
    507       1.5839      2.00000
    508       1.5885      2.00000
    509       1.5885      2.00000
    510       1.5885      2.00000
    511       1.5885      2.00000
    512       1.6671      2.00000
    513       1.6671      2.00000
    514       1.6671      2.00000
    515       1.6671      2.00000
    516       1.7324      2.00000
    517       1.7324      2.00000
    518       1.7324      2.00000
    519       1.7324      2.00000
    520       1.7563      2.00000
    521       1.7563      2.00000
    522       1.7563      2.00000
    523       1.7563      2.00000
    524       1.8218      2.00000
    525       1.8218      2.00000
    526       1.8218      2.00000
    527       1.8218      2.00000
    528       1.8912      2.00000
    529       1.8912      2.00000
    530       1.9322      2.00000
    531       1.9322      2.00000
    532       1.9322      2.00000
    533       1.9322      2.00000
    534       2.0266      2.00000
    535       2.0266      2.00000
    536       2.0266      2.00000
    537       2.0266      2.00000
    538       2.1392      2.00000
    539       2.1392      2.00000
    540       2.2201      2.00000
    541       2.2201      2.00000
    542       2.2355      2.00000
    543       2.2355      2.00000
    544       2.2355      2.00000
    545       2.2355      2.00000
    546       2.2451      2.00000
    547       2.2451      2.00000
    548       2.2451      2.00000
    549       2.2451      2.00000
    550       2.2488      2.00000
    551       2.2488      2.00000
    552       2.2488      2.00000
    553       2.2488      2.00000
    554       2.4115      2.00000
    555       2.4115      2.00000
    556       2.4115      2.00000
    557       2.4115      2.00000
    558       2.4828      2.00000
    559       2.4828      2.00000
    560       2.4828      2.00000
    561       2.4828      2.00000
    562       2.5370      2.00000
    563       2.5370      2.00000
    564       2.5370      2.00000
    565       2.5370      2.00000
    566       2.5812      2.00000
    567       2.5812      2.00000
    568       2.5812      2.00000
    569       2.5812      2.00000
    570       2.7090      2.00000
    571       2.7090      2.00000
    572       2.7090      2.00000
    573       2.7090      2.00000
    574       3.1019      2.00000
    575       3.1019      2.00000
    576       3.1501      2.00000
    577       4.2015      0.00000
    578       5.4584      0.00000
    579       5.4584      0.00000
    580       5.4764      0.00000
    581       5.4764      0.00000
    582       5.4764      0.00000
    583       5.4764      0.00000
    584       5.8236      0.00000
    585       5.8236      0.00000
    586       5.8236      0.00000
    587       5.8236      0.00000
    588       6.0559      0.00000
    589       6.0559      0.00000
    590       6.1055      0.00000
    591       6.2210      0.00000
    592       6.2210      0.00000
    593       6.3329      0.00000
    594       6.3329      0.00000
    595       6.4141      0.00000
    596       6.4141      0.00000
    597       6.4141      0.00000
    598       6.4141      0.00000
    599       6.4694      0.00000
    600       6.4694      0.00000
    601       6.4694      0.00000
    602       6.4694      0.00000
    603       6.5965      0.00000
    604       6.5965      0.00000
    605       6.6425      0.00000
    606       6.8911      0.00000
    607       6.8911      0.00000
    608       6.8911      0.00000
    609       6.8911      0.00000
    610       6.9235      0.00000
    611       6.9235      0.00000
    612       6.9235      0.00000
    613       6.9235      0.00000
    614       6.9378      0.00000
    615       6.9378      0.00000
    616       6.9378      0.00000
    617       6.9378      0.00000
    618       6.9669      0.00000
    619       6.9669      0.00000
    620       6.9669      0.00000
    621       6.9669      0.00000
    622       6.9885      0.00000
    623       6.9885      0.00000
    624       7.3735      0.00000
    625       7.3735      0.00000
    626       7.3735      0.00000
    627       7.3735      0.00000
    628       7.4276      0.00000
    629       7.4276      0.00000
    630       7.4276      0.00000
    631       7.4276      0.00000
    632       7.6728      0.00000
    633       7.6728      0.00000
    634       7.6728      0.00000
    635       7.6728      0.00000
    636       7.7753      0.00000
    637       7.7753      0.00000
    638       8.0149      0.00000
    639       8.0149      0.00000
    640       8.0149      0.00000
    641       8.0149      0.00000
    642       8.2147      0.00000
    643       8.2147      0.00000
    644       8.2147      0.00000
    645       8.2147      0.00000
    646       8.2189      0.00000
    647       8.2189      0.00000
    648       8.2285      0.00000
    649       8.2285      0.00000
    650       8.4266      0.00000
    651       8.4266      0.00000
    652       8.4266      0.00000
    653       8.4266      0.00000
    654       8.4482      0.00000
    655       8.4482      0.00000
    656       8.5397      0.00000
    657       8.5397      0.00000
    658       8.5397      0.00000
    659       8.5397      0.00000
    660       8.6606      0.00000
    661       8.6606      0.00000
    662       8.6606      0.00000
    663       8.6606      0.00000
    664       8.7316      0.00000
    665       8.7316      0.00000
    666       8.8244      0.00000
    667       8.8244      0.00000
    668       8.8244      0.00000
    669       8.8244      0.00000
    670       8.8590      0.00000
    671       8.8591      0.00000
    672       8.8591      0.00000
    673       8.8591      0.00000
    674       8.9504      0.00000
    675       9.0153      0.00000
    676       9.0153      0.00000
    677       9.0154      0.00000
    678       9.0154      0.00000
    679       9.0785      0.00000
    680       9.0786      0.00000
    681       9.0789      0.00000
    682       9.0808      0.00000
    683       9.0893      0.00000
    684       9.0895      0.00000
    685       9.2717      0.00000
    686       9.2731      0.00000
    687       9.2788      0.00000
    688       9.2878      0.00000
    689       9.3461      0.00000
    690       9.3514      0.00000
    691       9.3672      0.00000

 k-point     2 :       0.5000    0.0000    0.0000
  band No.  band energies     occupation 
      1     -13.6584      2.00000
      2     -13.6584      2.00000
      3     -13.6584      2.00000
      4     -13.6584      2.00000
      5     -13.6570      2.00000
      6     -13.6570      2.00000
      7     -13.6570      2.00000
      8     -13.6570      2.00000
      9     -13.6547      2.00000
     10     -13.6547      2.00000
     11     -13.6476      2.00000
     12     -13.6476      2.00000
     13     -13.6476      2.00000
     14     -13.6476      2.00000
     15     -13.6471      2.00000
     16     -13.6471      2.00000
     17     -13.6465      2.00000
     18     -13.6465      2.00000
     19     -13.6465      2.00000
     20     -13.6465      2.00000
     21     -13.6462      2.00000
     22     -13.6462      2.00000
     23     -13.6462      2.00000
     24     -13.6462      2.00000
     25     -13.6411      2.00000
     26     -13.6411      2.00000
     27     -13.6392      2.00000
     28     -13.6392      2.00000
     29     -13.6392      2.00000
     30     -13.6392      2.00000
     31     -13.6331      2.00000
     32     -13.6331      2.00000
     33     -13.6193      2.00000
     34     -13.6193      2.00000
     35     -13.6000      2.00000
     36     -13.6000      2.00000
     37     -13.6000      2.00000
     38     -13.6000      2.00000
     39     -13.5707      2.00000
     40     -13.5707      2.00000
     41     -13.5707      2.00000
     42     -13.5707      2.00000
     43     -13.5661      2.00000
     44     -13.5661      2.00000
     45     -13.5661      2.00000
     46     -13.5661      2.00000
     47     -13.5495      2.00000
     48     -13.5495      2.00000
     49     -13.5123      2.00000
     50     -13.5123      2.00000
     51     -13.4752      2.00000
     52     -13.4752      2.00000
     53     -13.4752      2.00000
     54     -13.4752      2.00000
     55     -13.4684      2.00000
     56     -13.4684      2.00000
     57     -13.4684      2.00000
     58     -13.4684      2.00000
     59     -13.4416      2.00000
     60     -13.4416      2.00000
     61     -13.4416      2.00000
     62     -13.4416      2.00000
     63     -13.3936      2.00000
     64     -13.3936      2.00000
     65     -13.3847      2.00000
     66     -13.3847      2.00000
     67     -13.3797      2.00000
     68     -13.3797      2.00000
     69     -13.3797      2.00000
     70     -13.3797      2.00000
     71     -13.3763      2.00000
     72     -13.3763      2.00000
     73     -13.3763      2.00000
     74     -13.3763      2.00000
     75     -13.3668      2.00000
     76     -13.3668      2.00000
     77     -13.3668      2.00000
     78     -13.3668      2.00000
     79     -13.3622      2.00000
     80     -13.3622      2.00000
     81     -13.3622      2.00000
     82     -13.3622      2.00000
     83     -13.3622      2.00000
     84     -13.3622      2.00000
     85     -13.3621      2.00000
     86     -13.3621      2.00000
     87     -13.3561      2.00000
     88     -13.3561      2.00000
     89     -13.3553      2.00000
     90     -13.3553      2.00000
     91     -13.3500      2.00000
     92     -13.3500      2.00000
     93     -13.3500      2.00000
     94     -13.3500      2.00000
     95     -13.3422      2.00000
     96     -13.3422      2.00000
     97     -13.2763      2.00000
     98     -13.2763      2.00000
     99     -13.2763      2.00000
    100     -13.2763      2.00000
    101     -13.2752      2.00000
    102     -13.2752      2.00000
    103     -13.2740      2.00000
    104     -13.2740      2.00000
    105     -13.2697      2.00000
    106     -13.2697      2.00000
    107     -13.2662      2.00000
    108     -13.2661      2.00000
    109     -13.2651      2.00000
    110     -13.2651      2.00000
    111     -13.2651      2.00000
    112     -13.2651      2.00000
    113     -13.2641      2.00000
    114     -13.2641      2.00000
    115     -13.2641      2.00000
    116     -13.2641      2.00000
    117     -13.2637      2.00000
    118     -13.2637      2.00000
    119     -13.2637      2.00000
    120     -13.2637      2.00000
    121     -13.2635      2.00000
    122     -13.2635      2.00000
    123     -13.2635      2.00000
    124     -13.2635      2.00000
    125     -13.2628      2.00000
    126     -13.2628      2.00000
    127     -13.2628      2.00000
    128     -13.2628      2.00000
    129     -13.2540      2.00000
    130     -13.2540      2.00000
    131     -13.2521      2.00000
    132     -13.2521      2.00000
    133     -13.2521      2.00000
    134     -13.2521      2.00000
    135     -13.2497      2.00000
    136     -13.2497      2.00000
    137     -13.2497      2.00000
    138     -13.2497      2.00000
    139     -13.2497      2.00000
    140     -13.2497      2.00000
    141     -13.2497      2.00000
    142     -13.2497      2.00000
    143     -13.2448      2.00000
    144     -13.2448      2.00000
    145     -13.2448      2.00000
    146     -13.2448      2.00000
    147     -13.2446      2.00000
    148     -13.2446      2.00000
    149     -13.2446      2.00000
    150     -13.2446      2.00000
    151     -13.2417      2.00000
    152     -13.2417      2.00000
    153     -13.2408      2.00000
    154     -13.2408      2.00000
    155     -13.2406      2.00000
    156     -13.2406      2.00000
    157     -13.2377      2.00000
    158     -13.2377      2.00000
    159     -13.2377      2.00000
    160     -13.2377      2.00000
    161     -11.7970      2.00000
    162     -11.7970      2.00000
    163     -11.6088      2.00000
    164     -11.6088      2.00000
    165     -11.6088      2.00000
    166     -11.6088      2.00000
    167     -11.2291      2.00000
    168     -11.2291      2.00000
    169     -11.2291      2.00000
    170     -11.2291      2.00000
    171     -11.2098      2.00000
    172     -11.2098      2.00000
    173     -11.2098      2.00000
    174     -11.2098      2.00000
    175     -11.1728      2.00000
    176     -11.1728      2.00000
    177     -11.1163      2.00000
    178     -11.1163      2.00000
    179     -10.8915      2.00000
    180     -10.8915      2.00000
    181     -10.8915      2.00000
    182     -10.8915      2.00000
    183     -10.8185      2.00000
    184     -10.8185      2.00000
    185     -10.8185      2.00000
    186     -10.8185      2.00000
    187     -10.6737      2.00000
    188     -10.6737      2.00000
    189     -10.6737      2.00000
    190     -10.6737      2.00000
    191     -10.6624      2.00000
    192     -10.6624      2.00000
    193     -10.6624      2.00000
    194     -10.6624      2.00000
    195     -10.6064      2.00000
    196     -10.6064      2.00000
    197     -10.5943      2.00000
    198     -10.5943      2.00000
    199     -10.5943      2.00000
    200     -10.5943      2.00000
    201     -10.5338      2.00000
    202     -10.5338      2.00000
    203     -10.5338      2.00000
    204     -10.5338      2.00000
    205     -10.4900      2.00000
    206     -10.4900      2.00000
    207     -10.4807      2.00000
    208     -10.4807      2.00000
    209     -10.4807      2.00000
    210     -10.4807      2.00000
    211     -10.4710      2.00000
    212     -10.4710      2.00000
    213     -10.4557      2.00000
    214     -10.4557      2.00000
    215     -10.4557      2.00000
    216     -10.4557      2.00000
    217     -10.3940      2.00000
    218     -10.3940      2.00000
    219     -10.3940      2.00000
    220     -10.3940      2.00000
    221     -10.3748      2.00000
    222     -10.3748      2.00000
    223     -10.3695      2.00000
    224     -10.3695      2.00000
    225      -3.7647      2.00000
    226      -3.7647      2.00000
    227      -3.6044      2.00000
    228      -3.6044      2.00000
    229      -3.6044      2.00000
    230      -3.6044      2.00000
    231      -3.5881      2.00000
    232      -3.5881      2.00000
    233      -3.5881      2.00000
    234      -3.5881      2.00000
    235      -3.5633      2.00000
    236      -3.5633      2.00000
    237      -3.5633      2.00000
    238      -3.5633      2.00000
    239      -3.3513      2.00000
    240      -3.3513      2.00000
    241      -3.2476      2.00000
    242      -3.2476      2.00000
    243      -3.2476      2.00000
    244      -3.2476      2.00000
    245      -3.1779      2.00000
    246      -3.1779      2.00000
    247      -3.1779      2.00000
    248      -3.1779      2.00000
    249      -3.1682      2.00000
    250      -3.1682      2.00000
    251      -2.9527      2.00000
    252      -2.9527      2.00000
    253      -2.9527      2.00000
    254      -2.9527      2.00000
    255      -2.8259      2.00000
    256      -2.8259      2.00000
    257      -2.1186      2.00000
    258      -2.1186      2.00000
    259      -2.1186      2.00000
    260      -2.1186      2.00000
    261      -1.9549      2.00000
    262      -1.9549      2.00000
    263      -1.9549      2.00000
    264      -1.9549      2.00000
    265      -1.7704      2.00000
    266      -1.7704      2.00000
    267      -1.7621      2.00000
    268      -1.7621      2.00000
    269      -1.7621      2.00000
    270      -1.7621      2.00000
    271      -1.7132      2.00000
    272      -1.7132      2.00000
    273      -1.7132      2.00000
    274      -1.7132      2.00000
    275      -1.6760      2.00000
    276      -1.6760      2.00000
    277      -1.6760      2.00000
    278      -1.6760      2.00000
    279      -1.4589      2.00000
    280      -1.4589      2.00000
    281      -1.3405      2.00000
    282      -1.3405      2.00000
    283      -1.3381      2.00000
    284      -1.3381      2.00000
    285      -1.3381      2.00000
    286      -1.3381      2.00000
    287      -1.2974      2.00000
    288      -1.2974      2.00000
    289      -1.2878      2.00000
    290      -1.2878      2.00000
    291      -1.2878      2.00000
    292      -1.2878      2.00000
    293      -1.2575      2.00000
    294      -1.2575      2.00000
    295      -0.9778      2.00000
    296      -0.9778      2.00000
    297      -0.9710      2.00000
    298      -0.9710      2.00000
    299      -0.9710      2.00000
    300      -0.9710      2.00000
    301      -0.9607      2.00000
    302      -0.9607      2.00000
    303      -0.9607      2.00000
    304      -0.9607      2.00000
    305      -0.7514      2.00000
    306      -0.7514      2.00000
    307      -0.7514      2.00000
    308      -0.7514      2.00000
    309      -0.7253      2.00000
    310      -0.7253      2.00000
    311      -0.7108      2.00000
    312      -0.7108      2.00000
    313      -0.7108      2.00000
    314      -0.7108      2.00000
    315      -0.6522      2.00000
    316      -0.6522      2.00000
    317      -0.6178      2.00000
    318      -0.6178      2.00000
    319      -0.6178      2.00000
    320      -0.6178      2.00000
    321      -0.6143      2.00000
    322      -0.6143      2.00000
    323      -0.6103      2.00000
    324      -0.6103      2.00000
    325      -0.6103      2.00000
    326      -0.6103      2.00000
    327      -0.5287      2.00000
    328      -0.5287      2.00000
    329      -0.5148      2.00000
    330      -0.5148      2.00000
    331      -0.4911      2.00000
    332      -0.4911      2.00000
    333      -0.4911      2.00000
    334      -0.4911      2.00000
    335      -0.4894      2.00000
    336      -0.4894      2.00000
    337      -0.4894      2.00000
    338      -0.4894      2.00000
    339      -0.4793      2.00000
    340      -0.4793      2.00000
    341      -0.4736      2.00000
    342      -0.4736      2.00000
    343      -0.4649      2.00000
    344      -0.4649      2.00000
    345      -0.4649      2.00000
    346      -0.4649      2.00000
    347      -0.4492      2.00000
    348      -0.4492      2.00000
    349      -0.4492      2.00000
    350      -0.4492      2.00000
    351      -0.4066      2.00000
    352      -0.4066      2.00000
    353      -0.4066      2.00000
    354      -0.4066      2.00000
    355      -0.3920      2.00000
    356      -0.3920      2.00000
    357      -0.3920      2.00000
    358      -0.3920      2.00000
    359      -0.3267      2.00000
    360      -0.3267      2.00000
    361      -0.3147      2.00000
    362      -0.3146      2.00000
    363      -0.3146      2.00000
    364      -0.3146      2.00000
    365      -0.2529      2.00000
    366      -0.2529      2.00000
    367      -0.2529      2.00000
    368      -0.2529      2.00000
    369      -0.2354      2.00000
    370      -0.2354      2.00000
    371      -0.2354      2.00000
    372      -0.2354      2.00000
    373      -0.2285      2.00000
    374      -0.2285      2.00000
    375      -0.2159      2.00000
    376      -0.2159      2.00000
    377      -0.2027      2.00000
    378      -0.2027      2.00000
    379      -0.1810      2.00000
    380      -0.1810      2.00000
    381      -0.1810      2.00000
    382      -0.1810      2.00000
    383      -0.1499      2.00000
    384      -0.1499      2.00000
    385      -0.1499      2.00000
    386      -0.1499      2.00000
    387      -0.1172      2.00000
    388      -0.1172      2.00000
    389      -0.0938      2.00000
    390      -0.0938      2.00000
    391      -0.0938      2.00000
    392      -0.0938      2.00000
    393       0.0096      2.00000
    394       0.0096      2.00000
    395       0.0096      2.00000
    396       0.0096      2.00000
    397       0.0359      2.00000
    398       0.0359      2.00000
    399       0.0359      2.00000
    400       0.0359      2.00000
    401       0.0476      2.00000
    402       0.0476      2.00000
    403       0.0476      2.00000
    404       0.0476      2.00000
    405       0.0553      2.00000
    406       0.0553      2.00000
    407       0.1001      2.00000
    408       0.1001      2.00000
    409       0.1002      2.00000
    410       0.1002      2.00000
    411       0.1002      2.00000
    412       0.1002      2.00000
    413       0.1305      2.00000
    414       0.1305      2.00000
    415       0.1305      2.00000
    416       0.1305      2.00000
    417       0.7410      2.00000
    418       0.7410      2.00000
    419       0.7647      2.00000
    420       0.7647      2.00000
    421       0.7647      2.00000
    422       0.7647      2.00000
    423       0.7673      2.00000
    424       0.7673      2.00000
    425       0.7899      2.00000
    426       0.7899      2.00000
    427       0.7899      2.00000
    428       0.7899      2.00000
    429       0.8015      2.00000
    430       0.8015      2.00000
    431       0.8015      2.00000
    432       0.8015      2.00000
    433       0.8188      2.00000
    434       0.8188      2.00000
    435       0.8188      2.00000
    436       0.8188      2.00000
    437       0.8245      2.00000
    438       0.8245      2.00000
    439       0.8245      2.00000
    440       0.8245      2.00000
    441       0.8448      2.00000
    442       0.8448      2.00000
    443       0.8448      2.00000
    444       0.8448      2.00000
    445       0.8502      2.00000
    446       0.8502      2.00000
    447       0.8545      2.00000
    448       0.8545      2.00000
    449       0.8594      2.00000
    450       0.8594      2.00000
    451       0.8970      2.00000
    452       0.8970      2.00000
    453       0.9056      2.00000
    454       0.9056      2.00000
    455       0.9056      2.00000
    456       0.9056      2.00000
    457       0.9349      2.00000
    458       0.9349      2.00000
    459       0.9349      2.00000
    460       0.9349      2.00000
    461       0.9463      2.00000
    462       0.9463      2.00000
    463       0.9463      2.00000
    464       0.9463      2.00000
    465       0.9772      2.00000
    466       0.9772      2.00000
    467       0.9772      2.00000
    468       0.9772      2.00000
    469       0.9961      2.00000
    470       0.9961      2.00000
    471       1.0134      2.00000
    472       1.0134      2.00000
    473       1.1076      2.00000
    474       1.1076      2.00000
    475       1.1076      2.00000
    476       1.1076      2.00000
    477       1.1245      2.00000
    478       1.1245      2.00000
    479       1.1425      2.00000
    480       1.1425      2.00000
    481       1.1425      2.00000
    482       1.1425      2.00000
    483       1.2447      2.00000
    484       1.2447      2.00000
    485       1.3007      2.00000
    486       1.3007      2.00000
    487       1.3007      2.00000
    488       1.3007      2.00000
    489       1.3566      2.00000
    490       1.3566      2.00000
    491       1.3566      2.00000
    492       1.3566      2.00000
    493       1.4851      2.00000
    494       1.4851      2.00000
    495       1.4864      2.00000
    496       1.4864      2.00000
    497       1.4864      2.00000
    498       1.4864      2.00000
    499       1.4938      2.00000
    500       1.4938      2.00000
    501       1.5381      2.00000
    502       1.5381      2.00000
    503       1.5532      2.00000
    504       1.5532      2.00000
    505       1.5532      2.00000
    506       1.5532      2.00000
    507       1.5829      2.00000
    508       1.5829      2.00000
    509       1.5978      2.00000
    510       1.5978      2.00000
    511       1.5978      2.00000
    512       1.5979      2.00000
    513       1.6106      2.00000
    514       1.6106      2.00000
    515       1.6106      2.00000
    516       1.6106      2.00000
    517       1.6129      2.00000
    518       1.6129      2.00000
    519       1.6129      2.00000
    520       1.6129      2.00000
    521       1.7648      2.00000
    522       1.7648      2.00000
    523       1.7648      2.00000
    524       1.7648      2.00000
    525       1.8543      2.00000
    526       1.8543      2.00000
    527       1.8543      2.00000
    528       1.8543      2.00000
    529       1.9077      2.00000
    530       1.9077      2.00000
    531       1.9092      2.00000
    532       1.9092      2.00000
    533       1.9092      2.00000
    534       1.9092      2.00000
    535       2.0040      2.00000
    536       2.0040      2.00000
    537       2.0040      2.00000
    538       2.0040      2.00000
    539       2.1128      2.00000
    540       2.1128      2.00000
    541       2.1129      2.00000
    542       2.1129      2.00000
    543       2.1651      2.00000
    544       2.1651      2.00000
    545       2.2494      2.00000
    546       2.2494      2.00000
    547       2.3433      2.00000
    548       2.3433      2.00000
    549       2.3433      2.00000
    550       2.3433      2.00000
    551       2.3460      2.00000
    552       2.3460      2.00000
    553       2.3460      2.00000
    554       2.3460      2.00000
    555       2.3505      2.00000
    556       2.3505      2.00000
    557       2.3505      2.00000
    558       2.3505      2.00000
    559       2.3616      2.00000
    560       2.3616      2.00000
    561       2.3616      2.00000
    562       2.3616      2.00000
    563       2.3617      2.00000
    564       2.3617      2.00000
    565       2.5028      2.00000
    566       2.5028      2.00000
    567       2.5028      2.00000
    568       2.5028      2.00000
    569       2.7135      2.00000
    570       2.7135      2.00000
    571       2.7810      2.00000
    572       2.7810      2.00000
    573       2.9358      2.00000
    574       2.9358      2.00000
    575       2.9358      2.00000
    576       2.9358      2.00000
    577       5.5040      0.00000
    578       5.5040      0.00000
    579       5.7752      0.00000
    580       5.7752      0.00000
    581       5.7752      0.00000
    582       5.7752      0.00000
    583       5.9544      0.00000
    584       5.9544      0.00000
    585       5.9544      0.00000
    586       5.9544      0.00000
    587       6.0438      0.00000
    588       6.0438      0.00000
    589       6.0438      0.00000
    590       6.0438      0.00000
    591       6.2013      0.00000
    592       6.2013      0.00000
    593       6.2013      0.00000
    594       6.2013      0.00000
    595       6.2340      0.00000
    596       6.2340      0.00000
    597       6.4126      0.00000
    598       6.4126      0.00000
    599       6.4189      0.00000
    600       6.4189      0.00000
    601       6.4189      0.00000
    602       6.4189      0.00000
    603       6.5642      0.00000
    604       6.5642      0.00000
    605       6.6083      0.00000
    606       6.6083      0.00000
    607       6.6083      0.00000
    608       6.6083      0.00000
    609       6.8829      0.00000
    610       6.8829      0.00000
    611       6.9548      0.00000
    612       6.9548      0.00000
    613       7.0230      0.00000
    614       7.0230      0.00000
    615       7.1221      0.00000
    616       7.1221      0.00000
    617       7.1221      0.00000
    618       7.1221      0.00000
    619       7.2338      0.00000
    620       7.2338      0.00000
    621       7.2338      0.00000
    622       7.2338      0.00000
    623       7.2980      0.00000
    624       7.2980      0.00000
    625       7.2980      0.00000
    626       7.2980      0.00000
    627       7.4046      0.00000
    628       7.4046      0.00000
    629       7.4046      0.00000
    630       7.4046      0.00000
    631       7.6416      0.00000
    632       7.6416      0.00000
    633       7.6416      0.00000
    634       7.6416      0.00000
    635       7.7904      0.00000
    636       7.7904      0.00000
    637       7.8464      0.00000
    638       7.8464      0.00000
    639       7.8746      0.00000
    640       7.8746      0.00000
    641       8.0181      0.00000
    642       8.0181      0.00000
    643       8.0181      0.00000
    644       8.0181      0.00000
    645       8.0891      0.00000
    646       8.0891      0.00000
    647       8.0891      0.00000
    648       8.0891      0.00000
    649       8.1802      0.00000
    650       8.1802      0.00000
    651       8.1918      0.00000
    652       8.1918      0.00000
    653       8.2206      0.00000
    654       8.2206      0.00000
    655       8.2206      0.00000
    656       8.2206      0.00000
    657       8.4148      0.00000
    658       8.4148      0.00000
    659       8.4148      0.00000
    660       8.4148      0.00000
    661       8.4557      0.00000
    662       8.4557      0.00000
    663       8.4557      0.00000
    664       8.4557      0.00000
    665       8.5747      0.00000
    666       8.5747      0.00000
    667       8.7552      0.00000
    668       8.7552      0.00000
    669       8.7552      0.00000
    670       8.7552      0.00000
    671       8.8211      0.00000
    672       8.8211      0.00000
    673       8.8211      0.00000
    674       8.8211      0.00000
    675       8.8511      0.00000
    676       8.8511      0.00000
    677       8.8750      0.00000
    678       8.8750      0.00000
    679       8.8750      0.00000
    680       8.8750      0.00000
    681       9.0076      0.00000
    682       9.0076      0.00000
    683       9.0077      0.00000
    684       9.0079      0.00000
    685       9.0788      0.00000
    686       9.0790      0.00000
    687       9.0798      0.00000
    688       9.0814      0.00000
    689       9.2597      0.00000
    690       9.2643      0.00000
    691       9.2663      0.00000

 k-point     3 :       0.5000    0.5000    0.0000
  band No.  band energies     occupation 
      1     -13.6519      2.00000
      2     -13.6519      2.00000
      3     -13.6519      2.00000
      4     -13.6519      2.00000
      5     -13.6519      2.00000
      6     -13.6519      2.00000
      7     -13.6519      2.00000
      8     -13.6519      2.00000
      9     -13.6517      2.00000
     10     -13.6517      2.00000
     11     -13.6517      2.00000
     12     -13.6517      2.00000
     13     -13.6517      2.00000
     14     -13.6517      2.00000
     15     -13.6517      2.00000
     16     -13.6517      2.00000
     17     -13.6482      2.00000
     18     -13.6482      2.00000
     19     -13.6482      2.00000
     20     -13.6482      2.00000
     21     -13.6443      2.00000
     22     -13.6443      2.00000
     23     -13.6443      2.00000
     24     -13.6443      2.00000
     25     -13.6443      2.00000
     26     -13.6443      2.00000
     27     -13.6443      2.00000
     28     -13.6443      2.00000
     29     -13.6435      2.00000
     30     -13.6435      2.00000
     31     -13.6435      2.00000
     32     -13.6435      2.00000
     33     -13.6043      2.00000
     34     -13.6043      2.00000
     35     -13.6043      2.00000
     36     -13.6043      2.00000
     37     -13.5878      2.00000
     38     -13.5878      2.00000
     39     -13.5878      2.00000
     40     -13.5878      2.00000
     41     -13.5878      2.00000
     42     -13.5878      2.00000
     43     -13.5878      2.00000
     44     -13.5878      2.00000
     45     -13.5275      2.00000
     46     -13.5275      2.00000
     47     -13.5275      2.00000
     48     -13.5275      2.00000
     49     -13.5275      2.00000
     50     -13.5275      2.00000
     51     -13.5275      2.00000
     52     -13.5275      2.00000
     53     -13.4518      2.00000
     54     -13.4518      2.00000
     55     -13.4518      2.00000
     56     -13.4518      2.00000
     57     -13.4518      2.00000
     58     -13.4518      2.00000
     59     -13.4518      2.00000
     60     -13.4518      2.00000
     61     -13.4177      2.00000
     62     -13.4177      2.00000
     63     -13.4177      2.00000
     64     -13.4177      2.00000
     65     -13.3796      2.00000
     66     -13.3796      2.00000
     67     -13.3796      2.00000
     68     -13.3795      2.00000
     69     -13.3715      2.00000
     70     -13.3715      2.00000
     71     -13.3715      2.00000
     72     -13.3715      2.00000
     73     -13.3715      2.00000
     74     -13.3715      2.00000
     75     -13.3715      2.00000
     76     -13.3715      2.00000
     77     -13.3653      2.00000
     78     -13.3653      2.00000
     79     -13.3653      2.00000
     80     -13.3653      2.00000
     81     -13.3594      2.00000
     82     -13.3594      2.00000
     83     -13.3594      2.00000
     84     -13.3594      2.00000
     85     -13.3594      2.00000
     86     -13.3594      2.00000
     87     -13.3594      2.00000
     88     -13.3594      2.00000
     89     -13.3575      2.00000
     90     -13.3575      2.00000
     91     -13.3575      2.00000
     92     -13.3575      2.00000
     93     -13.3575      2.00000
     94     -13.3575      2.00000
     95     -13.3575      2.00000
     96     -13.3575      2.00000
     97     -13.2709      2.00000
     98     -13.2709      2.00000
     99     -13.2709      2.00000
    100     -13.2709      2.00000
    101     -13.2709      2.00000
    102     -13.2709      2.00000
    103     -13.2709      2.00000
    104     -13.2709      2.00000
    105     -13.2694      2.00000
    106     -13.2694      2.00000
    107     -13.2694      2.00000
    108     -13.2694      2.00000
    109     -13.2694      2.00000
    110     -13.2694      2.00000
    111     -13.2694      2.00000
    112     -13.2694      2.00000
    113     -13.2656      2.00000
    114     -13.2656      2.00000
    115     -13.2656      2.00000
    116     -13.2656      2.00000
    117     -13.2616      2.00000
    118     -13.2616      2.00000
    119     -13.2616      2.00000
    120     -13.2616      2.00000
    121     -13.2614      2.00000
    122     -13.2614      2.00000
    123     -13.2614      2.00000
    124     -13.2614      2.00000
    125     -13.2614      2.00000
    126     -13.2614      2.00000
    127     -13.2614      2.00000
    128     -13.2614      2.00000
    129     -13.2543      2.00000
    130     -13.2543      2.00000
    131     -13.2543      2.00000
    132     -13.2543      2.00000
    133     -13.2517      2.00000
    134     -13.2517      2.00000
    135     -13.2517      2.00000
    136     -13.2517      2.00000
    137     -13.2517      2.00000
    138     -13.2517      2.00000
    139     -13.2517      2.00000
    140     -13.2517      2.00000
    141     -13.2423      2.00000
    142     -13.2423      2.00000
    143     -13.2423      2.00000
    144     -13.2423      2.00000
    145     -13.2423      2.00000
    146     -13.2423      2.00000
    147     -13.2423      2.00000
    148     -13.2423      2.00000
    149     -13.2413      2.00000
    150     -13.2413      2.00000
    151     -13.2413      2.00000
    152     -13.2413      2.00000
    153     -13.2392      2.00000
    154     -13.2392      2.00000
    155     -13.2392      2.00000
    156     -13.2392      2.00000
    157     -13.2392      2.00000
    158     -13.2392      2.00000
    159     -13.2392      2.00000
    160     -13.2392      2.00000
    161     -11.6289      2.00000
    162     -11.6289      2.00000
    163     -11.6289      2.00000
    164     -11.6289      2.00000
    165     -11.4651      2.00000
    166     -11.4651      2.00000
    167     -11.4651      2.00000
    168     -11.4651      2.00000
    169     -11.4651      2.00000
    170     -11.4651      2.00000
    171     -11.4651      2.00000
    172     -11.4651      2.00000
    173     -11.0685      2.00000
    174     -11.0685      2.00000
    175     -11.0685      2.00000
    176     -11.0685      2.00000
    177     -11.0685      2.00000
    178     -11.0685      2.00000
    179     -11.0685      2.00000
    180     -11.0685      2.00000
    181     -10.6882      2.00000
    182     -10.6882      2.00000
    183     -10.6882      2.00000
    184     -10.6882      2.00000
    185     -10.6882      2.00000
    186     -10.6882      2.00000
    187     -10.6882      2.00000
    188     -10.6882      2.00000
    189     -10.5890      2.00000
    190     -10.5890      2.00000
    191     -10.5890      2.00000
    192     -10.5890      2.00000
    193     -10.5601      2.00000
    194     -10.5601      2.00000
    195     -10.5601      2.00000
    196     -10.5601      2.00000
    197     -10.5601      2.00000
    198     -10.5601      2.00000
    199     -10.5601      2.00000
    200     -10.5601      2.00000
    201     -10.5518      2.00000
    202     -10.5518      2.00000
    203     -10.5518      2.00000
    204     -10.5518      2.00000
    205     -10.5518      2.00000
    206     -10.5518      2.00000
    207     -10.5518      2.00000
    208     -10.5518      2.00000
    209     -10.5357      2.00000
    210     -10.5357      2.00000
    211     -10.5357      2.00000
    212     -10.5357      2.00000
    213     -10.4949      2.00000
    214     -10.4949      2.00000
    215     -10.4949      2.00000
    216     -10.4949      2.00000
    217     -10.4949      2.00000
    218     -10.4949      2.00000
    219     -10.4949      2.00000
    220     -10.4949      2.00000
    221     -10.3896      2.00000
    222     -10.3896      2.00000
    223     -10.3896      2.00000
    224     -10.3896      2.00000
    225      -3.7278      2.00000
    226      -3.7278      2.00000
    227      -3.7278      2.00000
    228      -3.7278      2.00000
    229      -3.5954      2.00000
    230      -3.5954      2.00000
    231      -3.5954      2.00000
    232      -3.5954      2.00000
    233      -3.5954      2.00000
    234      -3.5954      2.00000
    235      -3.5954      2.00000
    236      -3.5954      2.00000
    237      -3.2862      2.00000
    238      -3.2862      2.00000
    239      -3.2862      2.00000
    240      -3.2862      2.00000
    241      -3.2862      2.00000
    242      -3.2862      2.00000
    243      -3.2862      2.00000
    244      -3.2862      2.00000
    245      -3.0791      2.00000
    246      -3.0791      2.00000
    247      -3.0791      2.00000
    248      -3.0791      2.00000
    249      -3.0791      2.00000
    250      -3.0791      2.00000
    251      -3.0791      2.00000
    252      -3.0791      2.00000
    253      -3.0717      2.00000
    254      -3.0717      2.00000
    255      -3.0717      2.00000
    256      -3.0717      2.00000
    257      -1.9806      2.00000
    258      -1.9806      2.00000
    259      -1.9806      2.00000
    260      -1.9806      2.00000
    261      -1.9806      2.00000
    262      -1.9806      2.00000
    263      -1.9806      2.00000
    264      -1.9806      2.00000
    265      -1.9309      2.00000
    266      -1.9309      2.00000
    267      -1.9309      2.00000
    268      -1.9309      2.00000
    269      -1.7390      2.00000
    270      -1.7390      2.00000
    271      -1.7390      2.00000
    272      -1.7390      2.00000
    273      -1.7390      2.00000
    274      -1.7390      2.00000
    275      -1.7390      2.00000
    276      -1.7390      2.00000
    277      -1.3855      2.00000
    278      -1.3855      2.00000
    279      -1.3855      2.00000
    280      -1.3855      2.00000
    281      -1.3855      2.00000
    282      -1.3855      2.00000
    283      -1.3855      2.00000
    284      -1.3855      2.00000
    285      -1.3435      2.00000
    286      -1.3435      2.00000
    287      -1.3435      2.00000
    288      -1.3435      2.00000
    289      -1.3143      2.00000
    290      -1.3143      2.00000
    291      -1.3143      2.00000
    292      -1.3143      2.00000
    293      -0.8605      2.00000
    294      -0.8605      2.00000
    295      -0.8605      2.00000
    296      -0.8605      2.00000
    297      -0.8605      2.00000
    298      -0.8605      2.00000
    299      -0.8605      2.00000
    300      -0.8605      2.00000
    301      -0.8576      2.00000
    302      -0.8576      2.00000
    303      -0.8576      2.00000
    304      -0.8576      2.00000
    305      -0.8576      2.00000
    306      -0.8576      2.00000
    307      -0.8576      2.00000
    308      -0.8576      2.00000
    309      -0.8009      2.00000
    310      -0.8009      2.00000
    311      -0.8009      2.00000
    312      -0.8009      2.00000
    313      -0.7103      2.00000
    314      -0.7103      2.00000
    315      -0.7103      2.00000
    316      -0.7103      2.00000
    317      -0.7103      2.00000
    318      -0.7103      2.00000
    319      -0.7103      2.00000
    320      -0.7103      2.00000
    321      -0.6937      2.00000
    322      -0.6937      2.00000
    323      -0.6937      2.00000
    324      -0.6937      2.00000
    325      -0.6937      2.00000
    326      -0.6937      2.00000
    327      -0.6937      2.00000
    328      -0.6937      2.00000
    329      -0.5689      2.00000
    330      -0.5689      2.00000
    331      -0.5689      2.00000
    332      -0.5688      2.00000
    333      -0.4864      2.00000
    334      -0.4864      2.00000
    335      -0.4864      2.00000
    336      -0.4864      2.00000
    337      -0.4864      2.00000
    338      -0.4864      2.00000
    339      -0.4864      2.00000
    340      -0.4864      2.00000
    341      -0.4235      2.00000
    342      -0.4235      2.00000
    343      -0.4235      2.00000
    344      -0.4235      2.00000
    345      -0.4235      2.00000
    346      -0.4235      2.00000
    347      -0.4235      2.00000
    348      -0.4235      2.00000
    349      -0.4095      2.00000
    350      -0.4095      2.00000
    351      -0.4095      2.00000
    352      -0.4095      2.00000
    353      -0.3982      2.00000
    354      -0.3982      2.00000
    355      -0.3982      2.00000
    356      -0.3982      2.00000
    357      -0.2968      2.00000
    358      -0.2968      2.00000
    359      -0.2968      2.00000
    360      -0.2968      2.00000
    361      -0.2968      2.00000
    362      -0.2968      2.00000
    363      -0.2968      2.00000
    364      -0.2968      2.00000
    365      -0.2904      2.00000
    366      -0.2904      2.00000
    367      -0.2904      2.00000
    368      -0.2904      2.00000
    369      -0.2904      2.00000
    370      -0.2904      2.00000
    371      -0.2904      2.00000
    372      -0.2904      2.00000
    373      -0.2120      2.00000
    374      -0.2120      2.00000
    375      -0.2120      2.00000
    376      -0.2120      2.00000
    377      -0.2120      2.00000
    378      -0.2120      2.00000
    379      -0.2120      2.00000
    380      -0.2120      2.00000
    381      -0.1911      2.00000
    382      -0.1911      2.00000
    383      -0.1911      2.00000
    384      -0.1911      2.00000
    385      -0.0520      2.00000
    386      -0.0520      2.00000
    387      -0.0520      2.00000
    388      -0.0520      2.00000
    389      -0.0383      2.00000
    390      -0.0383      2.00000
    391      -0.0383      2.00000
    392      -0.0383      2.00000
    393      -0.0383      2.00000
    394      -0.0383      2.00000
    395      -0.0383      2.00000
    396      -0.0383      2.00000
    397      -0.0362      2.00000
    398      -0.0362      2.00000
    399      -0.0362      2.00000
    400      -0.0362      2.00000
    401      -0.0362      2.00000
    402      -0.0362      2.00000
    403      -0.0362      2.00000
    404      -0.0362      2.00000
    405       0.0619      2.00000
    406       0.0619      2.00000
    407       0.0619      2.00000
    408       0.0619      2.00000
    409       0.0619      2.00000
    410       0.0619      2.00000
    411       0.0619      2.00000
    412       0.0619      2.00000
    413       0.2015      2.00000
    414       0.2015      2.00000
    415       0.2015      2.00000
    416       0.2015      2.00000
    417       0.7576      2.00000
    418       0.7576      2.00000
    419       0.7576      2.00000
    420       0.7576      2.00000
    421       0.7598      2.00000
    422       0.7598      2.00000
    423       0.7598      2.00000
    424       0.7598      2.00000
    425       0.7598      2.00000
    426       0.7598      2.00000
    427       0.7598      2.00000
    428       0.7598      2.00000
    429       0.8115      2.00000
    430       0.8115      2.00000
    431       0.8115      2.00000
    432       0.8115      2.00000
    433       0.8115      2.00000
    434       0.8115      2.00000
    435       0.8115      2.00000
    436       0.8115      2.00000
    437       0.8640      2.00000
    438       0.8640      2.00000
    439       0.8640      2.00000
    440       0.8640      2.00000
    441       0.8640      2.00000
    442       0.8640      2.00000
    443       0.8640      2.00000
    444       0.8640      2.00000
    445       0.8744      2.00000
    446       0.8744      2.00000
    447       0.8744      2.00000
    448       0.8744      2.00000
    449       0.9608      2.00000
    450       0.9608      2.00000
    451       0.9608      2.00000
    452       0.9608      2.00000
    453       0.9811      2.00000
    454       0.9811      2.00000
    455       0.9811      2.00000
    456       0.9811      2.00000
    457       0.9811      2.00000
    458       0.9811      2.00000
    459       0.9811      2.00000
    460       0.9811      2.00000
    461       1.0203      2.00000
    462       1.0203      2.00000
    463       1.0203      2.00000
    464       1.0203      2.00000
    465       1.0203      2.00000
    466       1.0203      2.00000
    467       1.0203      2.00000
    468       1.0203      2.00000
    469       1.0320      2.00000
    470       1.0320      2.00000
    471       1.0320      2.00000
    472       1.0320      2.00000
    473       1.0514      2.00000
    474       1.0514      2.00000
    475       1.0514      2.00000
    476       1.0514      2.00000
    477       1.0514      2.00000
    478       1.0514      2.00000
    479       1.0514      2.00000
    480       1.0514      2.00000
    481       1.2733      2.00000
    482       1.2733      2.00000
    483       1.2733      2.00000
    484       1.2733      2.00000
    485       1.2800      2.00000
    486       1.2800      2.00000
    487       1.2800      2.00000
    488       1.2800      2.00000
    489       1.2800      2.00000
    490       1.2800      2.00000
    491       1.2800      2.00000
    492       1.2800      2.00000
    493       1.3786      2.00000
    494       1.3786      2.00000
    495       1.3786      2.00000
    496       1.3786      2.00000
    497       1.3786      2.00000
    498       1.3786      2.00000
    499       1.3786      2.00000
    500       1.3786      2.00000
    501       1.4684      2.00000
    502       1.4684      2.00000
    503       1.4684      2.00000
    504       1.4684      2.00000
    505       1.4684      2.00000
    506       1.4684      2.00000
    507       1.4684      2.00000
    508       1.4684      2.00000
    509       1.6025      2.00000
    510       1.6025      2.00000
    511       1.6025      2.00000
    512       1.6025      2.00000
    513       1.6025      2.00000
    514       1.6025      2.00000
    515       1.6025      2.00000
    516       1.6025      2.00000
    517       1.6437      2.00000
    518       1.6437      2.00000
    519       1.6437      2.00000
    520       1.6437      2.00000
    521       1.6676      2.00000
    522       1.6676      2.00000
    523       1.6676      2.00000
    524       1.6676      2.00000
    525       1.7264      2.00000
    526       1.7264      2.00000
    527       1.7264      2.00000
    528       1.7264      2.00000
    529       1.8936      2.00000
    530       1.8936      2.00000
    531       1.8936      2.00000
    532       1.8936      2.00000
    533       1.8936      2.00000
    534       1.8936      2.00000
    535       1.8936      2.00000
    536       1.8936      2.00000
    537       2.1009      2.00000
    538       2.1009      2.00000
    539       2.1009      2.00000
    540       2.1009      2.00000
    541       2.1009      2.00000
    542       2.1009      2.00000
    543       2.1009      2.00000
    544       2.1009      2.00000
    545       2.1965      2.00000
    546       2.1965      2.00000
    547       2.1965      2.00000
    548       2.1965      2.00000
    549       2.1965      2.00000
    550       2.1965      2.00000
    551       2.1965      2.00000
    552       2.1965      2.00000
    553       2.4528      2.00000
    554       2.4528      2.00000
    555       2.4528      2.00000
    556       2.4528      2.00000
    557       2.6756      2.00000
    558       2.6756      2.00000
    559       2.6756      2.00000
    560       2.6756      2.00000
    561       2.6756      2.00000
    562       2.6756      2.00000
    563       2.6756      2.00000
    564       2.6756      2.00000
    565       2.6970      2.00000
    566       2.6970      2.00000
    567       2.6970      2.00000
    568       2.6970      2.00000
    569       2.6970      2.00000
    570       2.6970      2.00000
    571       2.6970      2.00000
    572       2.6970      2.00000
    573       2.9364      2.00000
    574       2.9364      2.00000
    575       2.9365      2.00000
    576       2.9365      2.00000
    577       5.5666      0.00000
    578       5.5666      0.00000
    579       5.5667      0.00000
    580       5.5667      0.00000
    581       5.5667      0.00000
    582       5.5667      0.00000
    583       5.5667      0.00000
    584       5.5667      0.00000
    585       5.7657      0.00000
    586       5.7657      0.00000
    587       5.7657      0.00000
    588       5.7657      0.00000
    589       6.1764      0.00000
    590       6.1764      0.00000
    591       6.1764      0.00000
    592       6.1764      0.00000
    593       6.1764      0.00000
    594       6.1764      0.00000
    595       6.1764      0.00000
    596       6.1764      0.00000
    597       6.4450      0.00000
    598       6.4450      0.00000
    599       6.4450      0.00000
    600       6.4450      0.00000
    601       6.4450      0.00000
    602       6.4450      0.00000
    603       6.4450      0.00000
    604       6.4450      0.00000
    605       6.5382      0.00000
    606       6.5382      0.00000
    607       6.5382      0.00000
    608       6.5382      0.00000
    609       7.0604      0.00000
    610       7.0604      0.00000
    611       7.0604      0.00000
    612       7.0604      0.00000
    613       7.0604      0.00000
    614       7.0604      0.00000
    615       7.0604      0.00000
    616       7.0604      0.00000
    617       7.1628      0.00000
    618       7.1628      0.00000
    619       7.1628      0.00000
    620       7.1628      0.00000
    621       7.1628      0.00000
    622       7.1628      0.00000
    623       7.1628      0.00000
    624       7.1628      0.00000
    625       7.2738      0.00000
    626       7.2738      0.00000
    627       7.2738      0.00000
    628       7.2738      0.00000
    629       7.2738      0.00000
    630       7.2738      0.00000
    631       7.2738      0.00000
    632       7.2738      0.00000
    633       7.3926      0.00000
    634       7.3926      0.00000
    635       7.3926      0.00000
    636       7.3926      0.00000
    637       7.7598      0.00000
    638       7.7598      0.00000
    639       7.7598      0.00000
    640       7.7598      0.00000
    641       8.1290      0.00000
    642       8.1290      0.00000
    643       8.1290      0.00000
    644       8.1290      0.00000
    645       8.1290      0.00000
    646       8.1290      0.00000
    647       8.1290      0.00000
    648       8.1290      0.00000
    649       8.2085      0.00000
    650       8.2085      0.00000
    651       8.2085      0.00000
    652       8.2085      0.00000
    653       8.2085      0.00000
    654       8.2085      0.00000
    655       8.2085      0.00000
    656       8.2085      0.00000
    657       8.3674      0.00000
    658       8.3674      0.00000
    659       8.3674      0.00000
    660       8.3674      0.00000
    661       8.5320      0.00000
    662       8.5320      0.00000
    663       8.5320      0.00000
    664       8.5320      0.00000
    665       8.9031      0.00000
    666       8.9031      0.00000
    667       8.9031      0.00000
    668       8.9031      0.00000
    669       8.9166      0.00000
    670       8.9166      0.00000
    671       8.9166      0.00000
    672       8.9166      0.00000
    673       8.9166      0.00000
    674       8.9166      0.00000
    675       8.9166      0.00000
    676       8.9166      0.00000
    677       9.1178      0.00000
    678       9.1178      0.00000
    679       9.1178      0.00000
    680       9.1178      0.00000
    681       9.1178      0.00000
    682       9.1178      0.00000
    683       9.1178      0.00000
    684       9.1178      0.00000
    685       9.4109      0.00000
    686       9.4115      0.00000
    687       9.4122      0.00000
    688       9.4144      0.00000
    689       9.5956      0.00000
    690       9.6013      0.00000
    691       9.6100      0.00000

 k-point     4 :       0.0000    0.0000    0.5000
  band No.  band energies     occupation 
      1     -13.6594      2.00000
      2     -13.6594      2.00000
      3     -13.6594      2.00000
      4     -13.6594      2.00000
      5     -13.6594      2.00000
      6     -13.6594      2.00000
      7     -13.6594      2.00000
      8     -13.6594      2.00000
      9     -13.6557      2.00000
     10     -13.6557      2.00000
     11     -13.6557      2.00000
     12     -13.6557      2.00000
     13     -13.6557      2.00000
     14     -13.6557      2.00000
     15     -13.6557      2.00000
     16     -13.6557      2.00000
     17     -13.6431      2.00000
     18     -13.6431      2.00000
     19     -13.6431      2.00000
     20     -13.6431      2.00000
     21     -13.6380      2.00000
     22     -13.6380      2.00000
     23     -13.6380      2.00000
     24     -13.6380      2.00000
     25     -13.6380      2.00000
     26     -13.6380      2.00000
     27     -13.6380      2.00000
     28     -13.6380      2.00000
     29     -13.6353      2.00000
     30     -13.6353      2.00000
     31     -13.6353      2.00000
     32     -13.6353      2.00000
     33     -13.6280      2.00000
     34     -13.6280      2.00000
     35     -13.5875      2.00000
     36     -13.5875      2.00000
     37     -13.5875      2.00000
     38     -13.5875      2.00000
     39     -13.5875      2.00000
     40     -13.5875      2.00000
     41     -13.5875      2.00000
     42     -13.5875      2.00000
     43     -13.5768      2.00000
     44     -13.5768      2.00000
     45     -13.5214      2.00000
     46     -13.5214      2.00000
     47     -13.5214      2.00000
     48     -13.5214      2.00000
     49     -13.5214      2.00000
     50     -13.5214      2.00000
     51     -13.5214      2.00000
     52     -13.5214      2.00000
     53     -13.4860      2.00000
     54     -13.4860      2.00000
     55     -13.4537      2.00000
     56     -13.4537      2.00000
     57     -13.4537      2.00000
     58     -13.4537      2.00000
     59     -13.4537      2.00000
     60     -13.4537      2.00000
     61     -13.4536      2.00000
     62     -13.4536      2.00000
     63     -13.3986      2.00000
     64     -13.3986      2.00000
     65     -13.3785      2.00000
     66     -13.3785      2.00000
     67     -13.3785      2.00000
     68     -13.3785      2.00000
     69     -13.3785      2.00000
     70     -13.3785      2.00000
     71     -13.3785      2.00000
     72     -13.3785      2.00000
     73     -13.3745      2.00000
     74     -13.3745      2.00000
     75     -13.3745      2.00000
     76     -13.3745      2.00000
     77     -13.3745      2.00000
     78     -13.3745      2.00000
     79     -13.3745      2.00000
     80     -13.3745      2.00000
     81     -13.3569      2.00000
     82     -13.3569      2.00000
     83     -13.3569      2.00000
     84     -13.3569      2.00000
     85     -13.3493      2.00000
     86     -13.3493      2.00000
     87     -13.3493      2.00000
     88     -13.3493      2.00000
     89     -13.3493      2.00000
     90     -13.3493      2.00000
     91     -13.3493      2.00000
     92     -13.3493      2.00000
     93     -13.3433      2.00000
     94     -13.3433      2.00000
     95     -13.3433      2.00000
     96     -13.3433      2.00000
     97     -13.2810      2.00000
     98     -13.2810      2.00000
     99     -13.2765      2.00000
    100     -13.2765      2.00000
    101     -13.2734      2.00000
    102     -13.2733      2.00000
    103     -13.2692      2.00000
    104     -13.2692      2.00000
    105     -13.2692      2.00000
    106     -13.2692      2.00000
    107     -13.2692      2.00000
    108     -13.2692      2.00000
    109     -13.2692      2.00000
    110     -13.2692      2.00000
    111     -13.2672      2.00000
    112     -13.2672      2.00000
    113     -13.2672      2.00000
    114     -13.2672      2.00000
    115     -13.2672      2.00000
    116     -13.2672      2.00000
    117     -13.2672      2.00000
    118     -13.2671      2.00000
    119     -13.2612      2.00000
    120     -13.2612      2.00000
    121     -13.2587      2.00000
    122     -13.2587      2.00000
    123     -13.2567      2.00000
    124     -13.2567      2.00000
    125     -13.2567      2.00000
    126     -13.2567      2.00000
    127     -13.2567      2.00000
    128     -13.2567      2.00000
    129     -13.2567      2.00000
    130     -13.2567      2.00000
    131     -13.2508      2.00000
    132     -13.2508      2.00000
    133     -13.2507      2.00000
    134     -13.2507      2.00000
    135     -13.2507      2.00000
    136     -13.2507      2.00000
    137     -13.2507      2.00000
    138     -13.2507      2.00000
    139     -13.2477      2.00000
    140     -13.2477      2.00000
    141     -13.2477      2.00000
    142     -13.2477      2.00000
    143     -13.2477      2.00000
    144     -13.2477      2.00000
    145     -13.2477      2.00000
    146     -13.2477      2.00000
    147     -13.2451      2.00000
    148     -13.2451      2.00000
    149     -13.2412      2.00000
    150     -13.2412      2.00000
    151     -13.2412      2.00000
    152     -13.2412      2.00000
    153     -13.2412      2.00000
    154     -13.2412      2.00000
    155     -13.2412      2.00000
    156     -13.2412      2.00000
    157     -13.2367      2.00000
    158     -13.2367      2.00000
    159     -13.2356      2.00000
    160     -13.2356      2.00000
    161     -11.9332      2.00000
    162     -11.9332      2.00000
    163     -11.5369      2.00000
    164     -11.5369      2.00000
    165     -11.3376      2.00000
    166     -11.3376      2.00000
    167     -11.3376      2.00000
    168     -11.3376      2.00000
    169     -11.3376      2.00000
    170     -11.3376      2.00000
    171     -11.3376      2.00000
    172     -11.3376      2.00000
    173     -10.9703      2.00000
    174     -10.9703      2.00000
    175     -10.9703      2.00000
    176     -10.9703      2.00000
    177     -10.9703      2.00000
    178     -10.9703      2.00000
    179     -10.9703      2.00000
    180     -10.9703      2.00000
    181     -10.9401      2.00000
    182     -10.9401      2.00000
    183     -10.8942      2.00000
    184     -10.8942      2.00000
    185     -10.8942      2.00000
    186     -10.8942      2.00000
    187     -10.8942      2.00000
    188     -10.8942      2.00000
    189     -10.8942      2.00000
    190     -10.8942      2.00000
    191     -10.6089      2.00000
    192     -10.6089      2.00000
    193     -10.6089      2.00000
    194     -10.6089      2.00000
    195     -10.6089      2.00000
    196     -10.6089      2.00000
    197     -10.6089      2.00000
    198     -10.6089      2.00000
    199     -10.6036      2.00000
    200     -10.6036      2.00000
    201     -10.6036      2.00000
    202     -10.6036      2.00000
    203     -10.6035      2.00000
    204     -10.6035      2.00000
    205     -10.6035      2.00000
    206     -10.6035      2.00000
    207     -10.4575      2.00000
    208     -10.4575      2.00000
    209     -10.3888      2.00000
    210     -10.3888      2.00000
    211     -10.3888      2.00000
    212     -10.3888      2.00000
    213     -10.3888      2.00000
    214     -10.3888      2.00000
    215     -10.3888      2.00000
    216     -10.3888      2.00000
    217     -10.3886      2.00000
    218     -10.3886      2.00000
    219     -10.3885      2.00000
    220     -10.3885      2.00000
    221     -10.3683      2.00000
    222     -10.3683      2.00000
    223     -10.3683      2.00000
    224     -10.3683      2.00000
    225      -3.8638      2.00000
    226      -3.8638      2.00000
    227      -3.5742      2.00000
    228      -3.5742      2.00000
    229      -3.5742      2.00000
    230      -3.5742      2.00000
    231      -3.5741      2.00000
    232      -3.5741      2.00000
    233      -3.5741      2.00000
    234      -3.5741      2.00000
    235      -3.5598      2.00000
    236      -3.5598      2.00000
    237      -3.4588      2.00000
    238      -3.4588      2.00000
    239      -3.4588      2.00000
    240      -3.4588      2.00000
    241      -3.4588      2.00000
    242      -3.4588      2.00000
    243      -3.4588      2.00000
    244      -3.4588      2.00000
    245      -3.2233      2.00000
    246      -3.2233      2.00000
    247      -2.8865      2.00000
    248      -2.8865      2.00000
    249      -2.8865      2.00000
    250      -2.8865      2.00000
    251      -2.8865      2.00000
    252      -2.8865      2.00000
    253      -2.8865      2.00000
    254      -2.8865      2.00000
    255      -2.8472      2.00000
    256      -2.8472      2.00000
    257      -2.1510      2.00000
    258      -2.1510      2.00000
    259      -2.1510      2.00000
    260      -2.1510      2.00000
    261      -2.1510      2.00000
    262      -2.1510      2.00000
    263      -2.1510      2.00000
    264      -2.1510      2.00000
    265      -1.7083      2.00000
    266      -1.7083      2.00000
    267      -1.7083      2.00000
    268      -1.7083      2.00000
    269      -1.7083      2.00000
    270      -1.7083      2.00000
    271      -1.7083      2.00000
    272      -1.7083      2.00000
    273      -1.6883      2.00000
    274      -1.6883      2.00000
    275      -1.5066      2.00000
    276      -1.5066      2.00000
    277      -1.3834      2.00000
    278      -1.3834      2.00000
    279      -1.3834      2.00000
    280      -1.3834      2.00000
    281      -1.3834      2.00000
    282      -1.3834      2.00000
    283      -1.3834      2.00000
    284      -1.3834      2.00000
    285      -1.2330      2.00000
    286      -1.2330      2.00000
    287      -1.2330      2.00000
    288      -1.2330      2.00000
    289      -1.2330      2.00000
    290      -1.2330      2.00000
    291      -1.2330      2.00000
    292      -1.2330      2.00000
    293      -1.1372      2.00000
    294      -1.1372      2.00000
    295      -1.1056      2.00000
    296      -1.1056      2.00000
    297      -0.9669      2.00000
    298      -0.9669      2.00000
    299      -0.8933      2.00000
    300      -0.8933      2.00000
    301      -0.8932      2.00000
    302      -0.8932      2.00000
    303      -0.8932      2.00000
    304      -0.8932      2.00000
    305      -0.8932      2.00000
    306      -0.8932      2.00000
    307      -0.7571      2.00000
    308      -0.7571      2.00000
    309      -0.7571      2.00000
    310      -0.7571      2.00000
    311      -0.7571      2.00000
    312      -0.7571      2.00000
    313      -0.7571      2.00000
    314      -0.7571      2.00000
    315      -0.7292      2.00000
    316      -0.7292      2.00000
    317      -0.7292      2.00000
    318      -0.7292      2.00000
    319      -0.7292      2.00000
    320      -0.7292      2.00000
    321      -0.7292      2.00000
    322      -0.7292      2.00000
    323      -0.6992      2.00000
    324      -0.6992      2.00000
    325      -0.6992      2.00000
    326      -0.6992      2.00000
    327      -0.5974      2.00000
    328      -0.5974      2.00000
    329      -0.5974      2.00000
    330      -0.5974      2.00000
    331      -0.5565      2.00000
    332      -0.5565      2.00000
    333      -0.5160      2.00000
    334      -0.5160      2.00000
    335      -0.5160      2.00000
    336      -0.5160      2.00000
    337      -0.5159      2.00000
    338      -0.5159      2.00000
    339      -0.5159      2.00000
    340      -0.5159      2.00000
    341      -0.4380      2.00000
    342      -0.4380      2.00000
    343      -0.4380      2.00000
    344      -0.4380      2.00000
    345      -0.4380      2.00000
    346      -0.4380      2.00000
    347      -0.4380      2.00000
    348      -0.4380      2.00000
    349      -0.3976      2.00000
    350      -0.3976      2.00000
    351      -0.3976      2.00000
    352      -0.3976      2.00000
    353      -0.3830      2.00000
    354      -0.3830      2.00000
    355      -0.3830      2.00000
    356      -0.3830      2.00000
    357      -0.3830      2.00000
    358      -0.3830      2.00000
    359      -0.3830      2.00000
    360      -0.3830      2.00000
    361      -0.3754      2.00000
    362      -0.3753      2.00000
    363      -0.3753      2.00000
    364      -0.3753      2.00000
    365      -0.2673      2.00000
    366      -0.2673      2.00000
    367      -0.2300      2.00000
    368      -0.2300      2.00000
    369      -0.2300      2.00000
    370      -0.2300      2.00000
    371      -0.2300      2.00000
    372      -0.2300      2.00000
    373      -0.2300      2.00000
    374      -0.2300      2.00000
    375      -0.2015      2.00000
    376      -0.2015      2.00000
    377      -0.1996      2.00000
    378      -0.1995      2.00000
    379      -0.1995      2.00000
    380      -0.1995      2.00000
    381      -0.1766      2.00000
    382      -0.1766      2.00000
    383      -0.1766      2.00000
    384      -0.1766      2.00000
    385      -0.1766      2.00000
    386      -0.1766      2.00000
    387      -0.1766      2.00000
    388      -0.1766      2.00000
    389      -0.0982      2.00000
    390      -0.0982      2.00000
    391      -0.0982      2.00000
    392      -0.0982      2.00000
    393      -0.0277      2.00000
    394      -0.0277      2.00000
    395      -0.0277      2.00000
    396      -0.0277      2.00000
    397      -0.0277      2.00000
    398      -0.0277      2.00000
    399      -0.0277      2.00000
    400      -0.0277      2.00000
    401       0.0899      2.00000
    402       0.0899      2.00000
    403       0.0899      2.00000
    404       0.0899      2.00000
    405       0.0899      2.00000
    406       0.0899      2.00000
    407       0.0899      2.00000
    408       0.0899      2.00000
    409       0.1159      2.00000
    410       0.1159      2.00000
    411       0.1159      2.00000
    412       0.1159      2.00000
    413       0.1159      2.00000
    414       0.1159      2.00000
    415       0.1159      2.00000
    416       0.1159      2.00000
    417       0.6656      2.00000
    418       0.6656      2.00000
    419       0.6806      2.00000
    420       0.6806      2.00000
    421       0.7654      2.00000
    422       0.7655      2.00000
    423       0.7827      2.00000
    424       0.7827      2.00000
    425       0.7828      2.00000
    426       0.7828      2.00000
    427       0.7828      2.00000
    428       0.7828      2.00000
    429       0.7828      2.00000
    430       0.7828      2.00000
    431       0.7906      2.00000
    432       0.7906      2.00000
    433       0.7974      2.00000
    434       0.7974      2.00000
    435       0.7974      2.00000
    436       0.7974      2.00000
    437       0.7974      2.00000
    438       0.7974      2.00000
    439       0.7974      2.00000
    440       0.7974      2.00000
    441       0.8148      2.00000
    442       0.8148      2.00000
    443       0.8266      2.00000
    444       0.8267      2.00000
    445       0.8509      2.00000
    446       0.8509      2.00000
    447       0.8509      2.00000
    448       0.8509      2.00000
    449       0.8509      2.00000
    450       0.8509      2.00000
    451       0.8509      2.00000
    452       0.8509      2.00000
    453       0.9223      2.00000
    454       0.9223      2.00000
    455       0.9250      2.00000
    456       0.9250      2.00000
    457       0.9250      2.00000
    458       0.9251      2.00000
    459       0.9251      2.00000
    460       0.9251      2.00000
    461       0.9251      2.00000
    462       0.9251      2.00000
    463       1.0782      2.00000
    464       1.0782      2.00000
    465       1.1149      2.00000
    466       1.1149      2.00000
    467       1.1149      2.00000
    468       1.1149      2.00000
    469       1.1149      2.00000
    470       1.1149      2.00000
    471       1.1149      2.00000
    472       1.1150      2.00000
    473       1.1316      2.00000
    474       1.1316      2.00000
    475       1.1316      2.00000
    476       1.1316      2.00000
    477       1.1316      2.00000
    478       1.1316      2.00000
    479       1.1316      2.00000
    480       1.1316      2.00000
    481       1.2223      2.00000
    482       1.2223      2.00000
    483       1.2223      2.00000
    484       1.2223      2.00000
    485       1.2223      2.00000
    486       1.2223      2.00000
    487       1.2223      2.00000
    488       1.2223      2.00000
    489       1.2784      2.00000
    490       1.2784      2.00000
    491       1.2784      2.00000
    492       1.2784      2.00000
    493       1.2927      2.00000
    494       1.2927      2.00000
    495       1.3733      2.00000
    496       1.3734      2.00000
    497       1.3734      2.00000
    498       1.3734      2.00000
    499       1.3734      2.00000
    500       1.3734      2.00000
    501       1.3734      2.00000
    502       1.3734      2.00000
    503       1.3964      2.00000
    504       1.3964      2.00000
    505       1.6795      2.00000
    506       1.6795      2.00000
    507       1.6795      2.00000
    508       1.6795      2.00000
    509       1.6795      2.00000
    510       1.6795      2.00000
    511       1.6795      2.00000
    512       1.6795      2.00000
    513       1.6988      2.00000
    514       1.6988      2.00000
    515       1.6988      2.00000
    516       1.6988      2.00000
    517       1.7229      2.00000
    518       1.7229      2.00000
    519       1.7229      2.00000
    520       1.7229      2.00000
    521       1.7229      2.00000
    522       1.7229      2.00000
    523       1.7229      2.00000
    524       1.7229      2.00000
    525       1.8491      2.00000
    526       1.8491      2.00000
    527       1.9724      2.00000
    528       1.9724      2.00000
    529       1.9724      2.00000
    530       1.9725      2.00000
    531       1.9725      2.00000
    532       1.9725      2.00000
    533       1.9725      2.00000
    534       1.9725      2.00000
    535       2.0538      2.00000
    536       2.0538      2.00000
    537       2.0538      2.00000
    538       2.0538      2.00000
    539       2.0538      2.00000
    540       2.0538      2.00000
    541       2.0538      2.00000
    542       2.0538      2.00000
    543       2.2472      2.00000
    544       2.2472      2.00000
    545       2.2472      2.00000
    546       2.2472      2.00000
    547       2.2472      2.00000
    548       2.2472      2.00000
    549       2.2473      2.00000
    550       2.2473      2.00000
    551       2.3706      2.00000
    552       2.3706      2.00000
    553       2.3706      2.00000
    554       2.3706      2.00000
    555       2.4947      2.00000
    556       2.4947      2.00000
    557       2.4947      2.00000
    558       2.4947      2.00000
    559       2.4947      2.00000
    560       2.4947      2.00000
    561       2.4947      2.00000
    562       2.4947      2.00000
    563       2.5319      2.00000
    564       2.5319      2.00000
    565       2.5319      2.00000
    566       2.5319      2.00000
    567       2.5319      2.00000
    568       2.5319      2.00000
    569       2.5319      2.00000
    570       2.5319      2.00000
    571       2.7581      2.00000
    572       2.7581      2.00000
    573       2.9908      2.00000
    574       2.9908      2.00000
    575       2.9908      2.00000
    576       2.9908      2.00000
    577       4.6888      0.00000
    578       4.6888      0.00000
    579       5.6378      0.00000
    580       5.6378      0.00000
    581       5.6378      0.00000
    582       5.6378      0.00000
    583       5.6378      0.00000
    584       5.6378      0.00000
    585       5.6378      0.00000
    586       5.6378      0.00000
    587       6.0116      0.00000
    588       6.0116      0.00000
    589       6.1646      0.00000
    590       6.1646      0.00000
    591       6.2798      0.00000
    592       6.2798      0.00000
    593       6.2799      0.00000
    594       6.2799      0.00000
    595       6.3686      0.00000
    596       6.3686      0.00000
    597       6.4378      0.00000
    598       6.4378      0.00000
    599       6.4378      0.00000
    600       6.4378      0.00000
    601       6.4378      0.00000
    602       6.4378      0.00000
    603       6.4378      0.00000
    604       6.4378      0.00000
    605       6.6415      0.00000
    606       6.6415      0.00000
    607       6.6734      0.00000
    608       6.6734      0.00000
    609       6.9394      0.00000
    610       6.9394      0.00000
    611       6.9394      0.00000
    612       6.9394      0.00000
    613       6.9394      0.00000
    614       6.9394      0.00000
    615       6.9394      0.00000
    616       6.9394      0.00000
    617       7.1392      0.00000
    618       7.1392      0.00000
    619       7.1392      0.00000
    620       7.1392      0.00000
    621       7.1392      0.00000
    622       7.1392      0.00000
    623       7.1393      0.00000
    624       7.1393      0.00000
    625       7.2924      0.00000
    626       7.2924      0.00000
    627       7.5396      0.00000
    628       7.5396      0.00000
    629       7.5396      0.00000
    630       7.5396      0.00000
    631       7.5396      0.00000
    632       7.5396      0.00000
    633       7.5396      0.00000
    634       7.5396      0.00000
    635       7.7053      0.00000
    636       7.7053      0.00000
    637       7.7053      0.00000
    638       7.7053      0.00000
    639       8.0917      0.00000
    640       8.0917      0.00000
    641       8.0917      0.00000
    642       8.0917      0.00000
    643       8.0917      0.00000
    644       8.0917      0.00000
    645       8.0917      0.00000
    646       8.0917      0.00000
    647       8.2334      0.00000
    648       8.2334      0.00000
    649       8.3444      0.00000
    650       8.3444      0.00000
    651       8.4819      0.00000
    652       8.4819      0.00000
    653       8.5641      0.00000
    654       8.5641      0.00000
    655       8.5641      0.00000
    656       8.5641      0.00000
    657       8.5641      0.00000
    658       8.5641      0.00000
    659       8.5641      0.00000
    660       8.5641      0.00000
    661       8.8808      0.00000
    662       8.8808      0.00000
    663       8.8808      0.00000
    664       8.8808      0.00000
    665       8.8808      0.00000
    666       8.8808      0.00000
    667       8.8808      0.00000
    668       8.8809      0.00000
    669       8.9570      0.00000
    670       8.9570      0.00000
    671       8.9570      0.00000
    672       8.9570      0.00000
    673       8.9570      0.00000
    674       8.9571      0.00000
    675       8.9571      0.00000
    676       8.9572      0.00000
    677       9.0112      0.00000
    678       9.0114      0.00000
    679       9.0826      0.00000
    680       9.0826      0.00000
    681       9.0827      0.00000
    682       9.0829      0.00000
    683       9.0832      0.00000
    684       9.0833      0.00000
    685       9.0841      0.00000
    686       9.0851      0.00000
    687       9.1671      0.00000
    688       9.1795      0.00000
    689       9.3139      0.00000
    690       9.3205      0.00000
    691       9.3258      0.00000

 k-point     5 :       0.5000    0.0000    0.5000
  band No.  band energies     occupation 
      1     -13.6578      2.00000
      2     -13.6578      2.00000
      3     -13.6578      2.00000
      4     -13.6578      2.00000
      5     -13.6578      2.00000
      6     -13.6578      2.00000
      7     -13.6577      2.00000
      8     -13.6577      2.00000
      9     -13.6525      2.00000
     10     -13.6525      2.00000
     11     -13.6525      2.00000
     12     -13.6525      2.00000
     13     -13.6464      2.00000
     14     -13.6464      2.00000
     15     -13.6464      2.00000
     16     -13.6464      2.00000
     17     -13.6464      2.00000
     18     -13.6464      2.00000
     19     -13.6464      2.00000
     20     -13.6463      2.00000
     21     -13.6459      2.00000
     22     -13.6459      2.00000
     23     -13.6459      2.00000
     24     -13.6459      2.00000
     25     -13.6405      2.00000
     26     -13.6405      2.00000
     27     -13.6405      2.00000
     28     -13.6405      2.00000
     29     -13.6360      2.00000
     30     -13.6360      2.00000
     31     -13.6360      2.00000
     32     -13.6360      2.00000
     33     -13.6149      2.00000
     34     -13.6149      2.00000
     35     -13.6149      2.00000
     36     -13.6149      2.00000
     37     -13.5734      2.00000
     38     -13.5734      2.00000
     39     -13.5734      2.00000
     40     -13.5734      2.00000
     41     -13.5685      2.00000
     42     -13.5685      2.00000
     43     -13.5685      2.00000
     44     -13.5685      2.00000
     45     -13.5685      2.00000
     46     -13.5685      2.00000
     47     -13.5685      2.00000
     48     -13.5685      2.00000
     49     -13.4828      2.00000
     50     -13.4828      2.00000
     51     -13.4828      2.00000
     52     -13.4828      2.00000
     53     -13.4718      2.00000
     54     -13.4718      2.00000
     55     -13.4718      2.00000
     56     -13.4718      2.00000
     57     -13.4718      2.00000
     58     -13.4718      2.00000
     59     -13.4718      2.00000
     60     -13.4718      2.00000
     61     -13.4090      2.00000
     62     -13.4090      2.00000
     63     -13.4090      2.00000
     64     -13.4089      2.00000
     65     -13.3780      2.00000
     66     -13.3780      2.00000
     67     -13.3780      2.00000
     68     -13.3780      2.00000
     69     -13.3780      2.00000
     70     -13.3780      2.00000
     71     -13.3780      2.00000
     72     -13.3780      2.00000
     73     -13.3768      2.00000
     74     -13.3768      2.00000
     75     -13.3768      2.00000
     76     -13.3768      2.00000
     77     -13.3622      2.00000
     78     -13.3622      2.00000
     79     -13.3622      2.00000
     80     -13.3622      2.00000
     81     -13.3622      2.00000
     82     -13.3622      2.00000
     83     -13.3622      2.00000
     84     -13.3622      2.00000
     85     -13.3590      2.00000
     86     -13.3590      2.00000
     87     -13.3590      2.00000
     88     -13.3590      2.00000
     89     -13.3542      2.00000
     90     -13.3542      2.00000
     91     -13.3542      2.00000
     92     -13.3542      2.00000
     93     -13.3447      2.00000
     94     -13.3447      2.00000
     95     -13.3447      2.00000
     96     -13.3446      2.00000
     97     -13.2768      2.00000
     98     -13.2768      2.00000
     99     -13.2768      2.00000
    100     -13.2768      2.00000
    101     -13.2734      2.00000
    102     -13.2734      2.00000
    103     -13.2734      2.00000
    104     -13.2734      2.00000
    105     -13.2704      2.00000
    106     -13.2704      2.00000
    107     -13.2704      2.00000
    108     -13.2704      2.00000
    109     -13.2640      2.00000
    110     -13.2640      2.00000
    111     -13.2640      2.00000
    112     -13.2640      2.00000
    113     -13.2640      2.00000
    114     -13.2640      2.00000
    115     -13.2640      2.00000
    116     -13.2640      2.00000
    117     -13.2631      2.00000
    118     -13.2631      2.00000
    119     -13.2631      2.00000
    120     -13.2631      2.00000
    121     -13.2631      2.00000
    122     -13.2631      2.00000
    123     -13.2631      2.00000
    124     -13.2631      2.00000
    125     -13.2625      2.00000
    126     -13.2625      2.00000
    127     -13.2625      2.00000
    128     -13.2625      2.00000
    129     -13.2557      2.00000
    130     -13.2557      2.00000
    131     -13.2557      2.00000
    132     -13.2557      2.00000
    133     -13.2497      2.00000
    134     -13.2497      2.00000
    135     -13.2497      2.00000
    136     -13.2497      2.00000
    137     -13.2497      2.00000
    138     -13.2497      2.00000
    139     -13.2497      2.00000
    140     -13.2497      2.00000
    141     -13.2462      2.00000
    142     -13.2462      2.00000
    143     -13.2462      2.00000
    144     -13.2462      2.00000
    145     -13.2447      2.00000
    146     -13.2447      2.00000
    147     -13.2447      2.00000
    148     -13.2447      2.00000
    149     -13.2447      2.00000
    150     -13.2447      2.00000
    151     -13.2447      2.00000
    152     -13.2447      2.00000
    153     -13.2392      2.00000
    154     -13.2392      2.00000
    155     -13.2392      2.00000
    156     -13.2392      2.00000
    157     -13.2383      2.00000
    158     -13.2383      2.00000
    159     -13.2383      2.00000
    160     -13.2383      2.00000
    161     -11.7480      2.00000
    162     -11.7480      2.00000
    163     -11.7480      2.00000
    164     -11.7480      2.00000
    165     -11.3994      2.00000
    166     -11.3994      2.00000
    167     -11.3994      2.00000
    168     -11.3994      2.00000
    169     -11.2199      2.00000
    170     -11.2199      2.00000
    171     -11.2199      2.00000
    172     -11.2199      2.00000
    173     -11.2199      2.00000
    174     -11.2199      2.00000
    175     -11.2199      2.00000
    176     -11.2199      2.00000
    177     -10.8812      2.00000
    178     -10.8812      2.00000
    179     -10.8812      2.00000
    180     -10.8812      2.00000
    181     -10.8593      2.00000
    182     -10.8593      2.00000
    183     -10.8593      2.00000
    184     -10.8593      2.00000
    185     -10.8593      2.00000
    186     -10.8593      2.00000
    187     -10.8593      2.00000
    188     -10.8593      2.00000
    189     -10.6312      2.00000
    190     -10.6312      2.00000
    191     -10.6312      2.00000
    192     -10.6312      2.00000
    193     -10.6312      2.00000
    194     -10.6312      2.00000
    195     -10.6312      2.00000
    196     -10.6312      2.00000
    197     -10.5893      2.00000
    198     -10.5893      2.00000
    199     -10.5893      2.00000
    200     -10.5893      2.00000
    201     -10.5449      2.00000
    202     -10.5449      2.00000
    203     -10.5449      2.00000
    204     -10.5449      2.00000
    205     -10.4662      2.00000
    206     -10.4662      2.00000
    207     -10.4662      2.00000
    208     -10.4662      2.00000
    209     -10.4662      2.00000
    210     -10.4662      2.00000
    211     -10.4662      2.00000
    212     -10.4662      2.00000
    213     -10.4507      2.00000
    214     -10.4507      2.00000
    215     -10.4507      2.00000
    216     -10.4507      2.00000
    217     -10.4046      2.00000
    218     -10.4046      2.00000
    219     -10.4046      2.00000
    220     -10.4046      2.00000
    221     -10.3794      2.00000
    222     -10.3794      2.00000
    223     -10.3794      2.00000
    224     -10.3794      2.00000
    225      -3.7210      2.00000
    226      -3.7210      2.00000
    227      -3.7210      2.00000
    228      -3.7210      2.00000
    229      -3.5770      2.00000
    230      -3.5770      2.00000
    231      -3.5770      2.00000
    232      -3.5770      2.00000
    233      -3.5770      2.00000
    234      -3.5770      2.00000
    235      -3.5769      2.00000
    236      -3.5769      2.00000
    237      -3.4534      2.00000
    238      -3.4534      2.00000
    239      -3.4534      2.00000
    240      -3.4534      2.00000
    241      -3.2119      2.00000
    242      -3.2119      2.00000
    243      -3.2118      2.00000
    244      -3.2118      2.00000
    245      -3.2118      2.00000
    246      -3.2118      2.00000
    247      -3.2118      2.00000
    248      -3.2118      2.00000
    249      -3.0776      2.00000
    250      -3.0776      2.00000
    251      -3.0776      2.00000
    252      -3.0776      2.00000
    253      -2.8602      2.00000
    254      -2.8602      2.00000
    255      -2.8602      2.00000
    256      -2.8602      2.00000
    257      -2.0507      2.00000
    258      -2.0507      2.00000
    259      -2.0507      2.00000
    260      -2.0507      2.00000
    261      -2.0507      2.00000
    262      -2.0507      2.00000
    263      -2.0507      2.00000
    264      -2.0507      2.00000
    265      -1.7339      2.00000
    266      -1.7339      2.00000
    267      -1.7339      2.00000
    268      -1.7339      2.00000
    269      -1.7282      2.00000
    270      -1.7282      2.00000
    271      -1.7282      2.00000
    272      -1.7282      2.00000
    273      -1.7282      2.00000
    274      -1.7282      2.00000
    275      -1.7282      2.00000
    276      -1.7282      2.00000
    277      -1.5853      2.00000
    278      -1.5853      2.00000
    279      -1.5853      2.00000
    280      -1.5853      2.00000
    281      -1.4078      2.00000
    282      -1.4078      2.00000
    283      -1.4078      2.00000
    284      -1.4078      2.00000
    285      -1.1610      2.00000
    286      -1.1610      2.00000
    287      -1.1610      2.00000
    288      -1.1610      2.00000
    289      -1.1457      2.00000
    290      -1.1457      2.00000
    291      -1.1457      2.00000
    292      -1.1457      2.00000
    293      -1.1456      2.00000
    294      -1.1456      2.00000
    295      -1.1456      2.00000
    296      -1.1456      2.00000
    297      -1.1187      2.00000
    298      -1.1187      2.00000
    299      -1.1187      2.00000
    300      -1.1187      2.00000
    301      -1.0603      2.00000
    302      -1.0603      2.00000
    303      -1.0603      2.00000
    304      -1.0603      2.00000
    305      -0.7025      2.00000
    306      -0.7025      2.00000
    307      -0.7025      2.00000
    308      -0.7025      2.00000
    309      -0.6675      2.00000
    310      -0.6675      2.00000
    311      -0.6675      2.00000
    312      -0.6675      2.00000
    313      -0.6602      2.00000
    314      -0.6602      2.00000
    315      -0.6602      2.00000
    316      -0.6602      2.00000
    317      -0.6581      2.00000
    318      -0.6581      2.00000
    319      -0.6581      2.00000
    320      -0.6580      2.00000
    321      -0.6580      2.00000
    322      -0.6580      2.00000
    323      -0.6580      2.00000
    324      -0.6580      2.00000
    325      -0.5506      2.00000
    326      -0.5506      2.00000
    327      -0.5506      2.00000
    328      -0.5506      2.00000
    329      -0.5074      2.00000
    330      -0.5074      2.00000
    331      -0.5074      2.00000
    332      -0.5074      2.00000
    333      -0.4737      2.00000
    334      -0.4737      2.00000
    335      -0.4737      2.00000
    336      -0.4737      2.00000
    337      -0.4737      2.00000
    338      -0.4737      2.00000
    339      -0.4737      2.00000
    340      -0.4737      2.00000
    341      -0.4369      2.00000
    342      -0.4369      2.00000
    343      -0.4369      2.00000
    344      -0.4369      2.00000
    345      -0.4348      2.00000
    346      -0.4348      2.00000
    347      -0.4348      2.00000
    348      -0.4348      2.00000
    349      -0.4348      2.00000
    350      -0.4348      2.00000
    351      -0.4348      2.00000
    352      -0.4347      2.00000
    353      -0.4282      2.00000
    354      -0.4282      2.00000
    355      -0.4282      2.00000
    356      -0.4282      2.00000
    357      -0.3475      2.00000
    358      -0.3475      2.00000
    359      -0.3475      2.00000
    360      -0.3475      2.00000
    361      -0.2793      2.00000
    362      -0.2793      2.00000
    363      -0.2793      2.00000
    364      -0.2793      2.00000
    365      -0.2793      2.00000
    366      -0.2793      2.00000
    367      -0.2793      2.00000
    368      -0.2793      2.00000
    369      -0.2749      2.00000
    370      -0.2749      2.00000
    371      -0.2749      2.00000
    372      -0.2749      2.00000
    373      -0.2290      2.00000
    374      -0.2289      2.00000
    375      -0.2289      2.00000
    376      -0.2289      2.00000
    377      -0.1697      2.00000
    378      -0.1697      2.00000
    379      -0.1696      2.00000
    380      -0.1696      2.00000
    381      -0.1568      2.00000
    382      -0.1568      2.00000
    383      -0.1568      2.00000
    384      -0.1568      2.00000
    385      -0.1568      2.00000
    386      -0.1568      2.00000
    387      -0.1568      2.00000
    388      -0.1568      2.00000
    389      -0.0870      2.00000
    390      -0.0870      2.00000
    391      -0.0870      2.00000
    392      -0.0870      2.00000
    393       0.0116      2.00000
    394       0.0116      2.00000
    395       0.0116      2.00000
    396       0.0116      2.00000
    397       0.0349      2.00000
    398       0.0349      2.00000
    399       0.0349      2.00000
    400       0.0349      2.00000
    401       0.0349      2.00000
    402       0.0349      2.00000
    403       0.0349      2.00000
    404       0.0349      2.00000
    405       0.0761      2.00000
    406       0.0761      2.00000
    407       0.0761      2.00000
    408       0.0761      2.00000
    409       0.1214      2.00000
    410       0.1214      2.00000
    411       0.1215      2.00000
    412       0.1215      2.00000
    413       0.1215      2.00000
    414       0.1215      2.00000
    415       0.1215      2.00000
    416       0.1215      2.00000
    417       0.7546      2.00000
    418       0.7546      2.00000
    419       0.7546      2.00000
    420       0.7547      2.00000
    421       0.7813      2.00000
    422       0.7813      2.00000
    423       0.7814      2.00000
    424       0.7814      2.00000
    425       0.7814      2.00000
    426       0.7814      2.00000
    427       0.7814      2.00000
    428       0.7814      2.00000
    429       0.7834      2.00000
    430       0.7834      2.00000
    431       0.7835      2.00000
    432       0.7835      2.00000
    433       0.8306      2.00000
    434       0.8306      2.00000
    435       0.8306      2.00000
    436       0.8306      2.00000
    437       0.8358      2.00000
    438       0.8358      2.00000
    439       0.8358      2.00000
    440       0.8358      2.00000
    441       0.8358      2.00000
    442       0.8358      2.00000
    443       0.8358      2.00000
    444       0.8358      2.00000
    445       0.8471      2.00000
    446       0.8471      2.00000
    447       0.8472      2.00000
    448       0.8472      2.00000
    449       0.8736      2.00000
    450       0.8736      2.00000
    451       0.8736      2.00000
    452       0.8737      2.00000
    453       0.9216      2.00000
    454       0.9216      2.00000
    455       0.9216      2.00000
    456       0.9216      2.00000
    457       0.9255      2.00000
    458       0.9255      2.00000
    459       0.9256      2.00000
    460       0.9256      2.00000
    461       0.9256      2.00000
    462       0.9256      2.00000
    463       0.9256      2.00000
    464       0.9256      2.00000
    465       0.9980      2.00000
    466       0.9980      2.00000
    467       0.9981      2.00000
    468       0.9981      2.00000
    469       1.0202      2.00000
    470       1.0202      2.00000
    471       1.0202      2.00000
    472       1.0202      2.00000
    473       1.1142      2.00000
    474       1.1142      2.00000
    475       1.1142      2.00000
    476       1.1142      2.00000
    477       1.1142      2.00000
    478       1.1142      2.00000
    479       1.1143      2.00000
    480       1.1143      2.00000
    481       1.1748      2.00000
    482       1.1748      2.00000
    483       1.1748      2.00000
    484       1.1748      2.00000
    485       1.2554      2.00000
    486       1.2554      2.00000
    487       1.2554      2.00000
    488       1.2554      2.00000
    489       1.4405      2.00000
    490       1.4405      2.00000
    491       1.4405      2.00000
    492       1.4405      2.00000
    493       1.4775      2.00000
    494       1.4776      2.00000
    495       1.4776      2.00000
    496       1.4776      2.00000
    497       1.4792      2.00000
    498       1.4792      2.00000
    499       1.4792      2.00000
    500       1.4792      2.00000
    501       1.5435      2.00000
    502       1.5435      2.00000
    503       1.5435      2.00000
    504       1.5435      2.00000
    505       1.5435      2.00000
    506       1.5435      2.00000
    507       1.5435      2.00000
    508       1.5435      2.00000
    509       1.6097      2.00000
    510       1.6097      2.00000
    511       1.6097      2.00000
    512       1.6097      2.00000
    513       1.6247      2.00000
    514       1.6247      2.00000
    515       1.6247      2.00000
    516       1.6247      2.00000
    517       1.6247      2.00000
    518       1.6247      2.00000
    519       1.6247      2.00000
    520       1.6247      2.00000
    521       1.8288      2.00000
    522       1.8288      2.00000
    523       1.8288      2.00000
    524       1.8288      2.00000
    525       1.8288      2.00000
    526       1.8288      2.00000
    527       1.8288      2.00000
    528       1.8288      2.00000
    529       1.9171      2.00000
    530       1.9171      2.00000
    531       1.9171      2.00000
    532       1.9171      2.00000
    533       2.0339      2.00000
    534       2.0339      2.00000
    535       2.0339      2.00000
    536       2.0339      2.00000
    537       2.0515      2.00000
    538       2.0515      2.00000
    539       2.0515      2.00000
    540       2.0516      2.00000
    541       2.0516      2.00000
    542       2.0516      2.00000
    543       2.0516      2.00000
    544       2.0516      2.00000
    545       2.0594      2.00000
    546       2.0594      2.00000
    547       2.0595      2.00000
    548       2.0595      2.00000
    549       2.3258      2.00000
    550       2.3258      2.00000
    551       2.3258      2.00000
    552       2.3258      2.00000
    553       2.3258      2.00000
    554       2.3258      2.00000
    555       2.3258      2.00000
    556       2.3258      2.00000
    557       2.4630      2.00000
    558       2.4631      2.00000
    559       2.4631      2.00000
    560       2.4631      2.00000
    561       2.4631      2.00000
    562       2.4631      2.00000
    563       2.4631      2.00000
    564       2.4631      2.00000
    565       2.6094      2.00000
    566       2.6094      2.00000
    567       2.6094      2.00000
    568       2.6094      2.00000
    569       2.7010      2.00000
    570       2.7010      2.00000
    571       2.7010      2.00000
    572       2.7010      2.00000
    573       2.9004      2.00000
    574       2.9004      2.00000
    575       2.9004      2.00000
    576       2.9004      2.00000
    577       5.5574      0.00000
    578       5.5574      0.00000
    579       5.5574      0.00000
    580       5.5574      0.00000
    581       5.9735      0.00000
    582       5.9735      0.00000
    583       5.9735      0.00000
    584       5.9735      0.00000
    585       5.9735      0.00000
    586       5.9735      0.00000
    587       5.9735      0.00000
    588       5.9735      0.00000
    589       6.1255      0.00000
    590       6.1255      0.00000
    591       6.1255      0.00000
    592       6.1255      0.00000
    593       6.3413      0.00000
    594       6.3413      0.00000
    595       6.3414      0.00000
    596       6.3414      0.00000
    597       6.3414      0.00000
    598       6.3414      0.00000
    599       6.3414      0.00000
    600       6.3414      0.00000
    601       6.5011      0.00000
    602       6.5011      0.00000
    603       6.5011      0.00000
    604       6.5011      0.00000
    605       6.5635      0.00000
    606       6.5635      0.00000
    607       6.5636      0.00000
    608       6.5636      0.00000
    609       6.8677      0.00000
    610       6.8677      0.00000
    611       6.8677      0.00000
    612       6.8677      0.00000
    613       7.0263      0.00000
    614       7.0263      0.00000
    615       7.0263      0.00000
    616       7.0263      0.00000
    617       7.0466      0.00000
    618       7.0466      0.00000
    619       7.0466      0.00000
    620       7.0466      0.00000
    621       7.4728      0.00000
    622       7.4728      0.00000
    623       7.4728      0.00000
    624       7.4728      0.00000
    625       7.4728      0.00000
    626       7.4728      0.00000
    627       7.4728      0.00000
    628       7.4728      0.00000
    629       7.5248      0.00000
    630       7.5248      0.00000
    631       7.5248      0.00000
    632       7.5248      0.00000
    633       7.5691      0.00000
    634       7.5691      0.00000
    635       7.5691      0.00000
    636       7.5691      0.00000
    637       7.8007      0.00000
    638       7.8007      0.00000
    639       7.8007      0.00000
    640       7.8007      0.00000
    641       8.0554      0.00000
    642       8.0554      0.00000
    643       8.0554      0.00000
    644       8.0554      0.00000
    645       8.0554      0.00000
    646       8.0554      0.00000
    647       8.0554      0.00000
    648       8.0554      0.00000
    649       8.0778      0.00000
    650       8.0778      0.00000
    651       8.0778      0.00000
    652       8.0778      0.00000
    653       8.4623      0.00000
    654       8.4623      0.00000
    655       8.4623      0.00000
    656       8.4623      0.00000
    657       8.4623      0.00000
    658       8.4623      0.00000
    659       8.4623      0.00000
    660       8.4623      0.00000
    661       8.6321      0.00000
    662       8.6321      0.00000
    663       8.6321      0.00000
    664       8.6321      0.00000
    665       8.7336      0.00000
    666       8.7336      0.00000
    667       8.7336      0.00000
    668       8.7336      0.00000
    669       8.7336      0.00000
    670       8.7336      0.00000
    671       8.7336      0.00000
    672       8.7336      0.00000
    673       8.7359      0.00000
    674       8.7359      0.00000
    675       8.7359      0.00000
    676       8.7359      0.00000
    677       8.9241      0.00000
    678       8.9241      0.00000
    679       8.9241      0.00000
    680       8.9241      0.00000
    681       8.9242      0.00000
    682       8.9242      0.00000
    683       8.9243      0.00000
    684       8.9246      0.00000
    685       9.0301      0.00000
    686       9.0304      0.00000
    687       9.0305      0.00000
    688       9.0317      0.00000
    689       9.1906      0.00000
    690       9.2010      0.00000
    691       9.2346      0.00000

 k-point     6 :       0.5000    0.5000    0.5000
  band No.  band energies     occupation 
      1     -13.6531      2.00000
      2     -13.6531      2.00000
      3     -13.6531      2.00000
      4     -13.6531      2.00000
      5     -13.6531      2.00000
      6     -13.6531      2.00000
      7     -13.6531      2.00000
      8     -13.6531      2.00000
      9     -13.6494      2.00000
     10     -13.6494      2.00000
     11     -13.6494      2.00000
     12     -13.6494      2.00000
     13     -13.6494      2.00000
     14     -13.6494      2.00000
     15     -13.6494      2.00000
     16     -13.6494      2.00000
     17     -13.6483      2.00000
     18     -13.6483      2.00000
     19     -13.6483      2.00000
     20     -13.6483      2.00000
     21     -13.6483      2.00000
     22     -13.6483      2.00000
     23     -13.6483      2.00000
     24     -13.6483      2.00000
     25     -13.6430      2.00000
     26     -13.6430      2.00000
     27     -13.6430      2.00000
     28     -13.6430      2.00000
     29     -13.6430      2.00000
     30     -13.6430      2.00000
     31     -13.6430      2.00000
     32     -13.6430      2.00000
     33     -13.6010      2.00000
     34     -13.6010      2.00000
     35     -13.6010      2.00000
     36     -13.6010      2.00000
     37     -13.6010      2.00000
     38     -13.6010      2.00000
     39     -13.6010      2.00000
     40     -13.6010      2.00000
     41     -13.5622      2.00000
     42     -13.5622      2.00000
     43     -13.5622      2.00000
     44     -13.5622      2.00000
     45     -13.5622      2.00000
     46     -13.5622      2.00000
     47     -13.5622      2.00000
     48     -13.5622      2.00000
     49     -13.4884      2.00000
     50     -13.4884      2.00000
     51     -13.4884      2.00000
     52     -13.4884      2.00000
     53     -13.4884      2.00000
     54     -13.4884      2.00000
     55     -13.4884      2.00000
     56     -13.4884      2.00000
     57     -13.4262      2.00000
     58     -13.4262      2.00000
     59     -13.4262      2.00000
     60     -13.4262      2.00000
     61     -13.4262      2.00000
     62     -13.4262      2.00000
     63     -13.4262      2.00000
     64     -13.4262      2.00000
     65     -13.3779      2.00000
     66     -13.3779      2.00000
     67     -13.3779      2.00000
     68     -13.3779      2.00000
     69     -13.3779      2.00000
     70     -13.3779      2.00000
     71     -13.3779      2.00000
     72     -13.3779      2.00000
     73     -13.3634      2.00000
     74     -13.3634      2.00000
     75     -13.3634      2.00000
     76     -13.3634      2.00000
     77     -13.3634      2.00000
     78     -13.3634      2.00000
     79     -13.3634      2.00000
     80     -13.3634      2.00000
     81     -13.3632      2.00000
     82     -13.3632      2.00000
     83     -13.3632      2.00000
     84     -13.3632      2.00000
     85     -13.3632      2.00000
     86     -13.3632      2.00000
     87     -13.3632      2.00000
     88     -13.3632      2.00000
     89     -13.3564      2.00000
     90     -13.3564      2.00000
     91     -13.3564      2.00000
     92     -13.3564      2.00000
     93     -13.3564      2.00000
     94     -13.3564      2.00000
     95     -13.3564      2.00000
     96     -13.3564      2.00000
     97     -13.2712      2.00000
     98     -13.2712      2.00000
     99     -13.2712      2.00000
    100     -13.2712      2.00000
    101     -13.2712      2.00000
    102     -13.2712      2.00000
    103     -13.2712      2.00000
    104     -13.2712      2.00000
    105     -13.2686      2.00000
    106     -13.2686      2.00000
    107     -13.2686      2.00000
    108     -13.2686      2.00000
    109     -13.2686      2.00000
    110     -13.2686      2.00000
    111     -13.2686      2.00000
    112     -13.2686      2.00000
    113     -13.2661      2.00000
    114     -13.2661      2.00000
    115     -13.2661      2.00000
    116     -13.2661      2.00000
    117     -13.2661      2.00000
    118     -13.2661      2.00000
    119     -13.2661      2.00000
    120     -13.2661      2.00000
    121     -13.2575      2.00000
    122     -13.2575      2.00000
    123     -13.2575      2.00000
    124     -13.2575      2.00000
    125     -13.2575      2.00000
    126     -13.2575      2.00000
    127     -13.2575      2.00000
    128     -13.2575      2.00000
    129     -13.2567      2.00000
    130     -13.2567      2.00000
    131     -13.2567      2.00000
    132     -13.2567      2.00000
    133     -13.2567      2.00000
    134     -13.2567      2.00000
    135     -13.2567      2.00000
    136     -13.2567      2.00000
    137     -13.2465      2.00000
    138     -13.2465      2.00000
    139     -13.2465      2.00000
    140     -13.2465      2.00000
    141     -13.2465      2.00000
    142     -13.2465      2.00000
    143     -13.2465      2.00000
    144     -13.2465      2.00000
    145     -13.2403      2.00000
    146     -13.2403      2.00000
    147     -13.2403      2.00000
    148     -13.2403      2.00000
    149     -13.2403      2.00000
    150     -13.2403      2.00000
    151     -13.2403      2.00000
    152     -13.2403      2.00000
    153     -13.2398      2.00000
    154     -13.2398      2.00000
    155     -13.2398      2.00000
    156     -13.2398      2.00000
    157     -13.2398      2.00000
    158     -13.2398      2.00000
    159     -13.2398      2.00000
    160     -13.2398      2.00000
    161     -11.5862      2.00000
    162     -11.5862      2.00000
    163     -11.5862      2.00000
    164     -11.5862      2.00000
    165     -11.5862      2.00000
    166     -11.5862      2.00000
    167     -11.5862      2.00000
    168     -11.5862      2.00000
    169     -11.2836      2.00000
    170     -11.2836      2.00000
    171     -11.2836      2.00000
    172     -11.2836      2.00000
    173     -11.2836      2.00000
    174     -11.2836      2.00000
    175     -11.2836      2.00000
    176     -11.2836      2.00000
    177     -10.8541      2.00000
    178     -10.8541      2.00000
    179     -10.8541      2.00000
    180     -10.8541      2.00000
    181     -10.8541      2.00000
    182     -10.8541      2.00000
    183     -10.8541      2.00000
    184     -10.8541      2.00000
    185     -10.6085      2.00000
    186     -10.6085      2.00000
    187     -10.6085      2.00000
    188     -10.6085      2.00000
    189     -10.6085      2.00000
    190     -10.6085      2.00000
    191     -10.6085      2.00000
    192     -10.6085      2.00000
    193     -10.5611      2.00000
    194     -10.5611      2.00000
    195     -10.5611      2.00000
    196     -10.5611      2.00000
    197     -10.5611      2.00000
    198     -10.5611      2.00000
    199     -10.5611      2.00000
    200     -10.5611      2.00000
    201     -10.5410      2.00000
    202     -10.5410      2.00000
    203     -10.5410      2.00000
    204     -10.5410      2.00000
    205     -10.5410      2.00000
    206     -10.5410      2.00000
    207     -10.5410      2.00000
    208     -10.5410      2.00000
    209     -10.5404      2.00000
    210     -10.5404      2.00000
    211     -10.5404      2.00000
    212     -10.5404      2.00000
    213     -10.5404      2.00000
    214     -10.5404      2.00000
    215     -10.5404      2.00000
    216     -10.5404      2.00000
    217     -10.4241      2.00000
    218     -10.4241      2.00000
    219     -10.4241      2.00000
    220     -10.4241      2.00000
    221     -10.4241      2.00000
    222     -10.4241      2.00000
    223     -10.4241      2.00000
    224     -10.4241      2.00000
    225      -3.6935      2.00000
    226      -3.6935      2.00000
    227      -3.6935      2.00000
    228      -3.6935      2.00000
    229      -3.6935      2.00000
    230      -3.6935      2.00000
    231      -3.6935      2.00000
    232      -3.6935      2.00000
    233      -3.4500      2.00000
    234      -3.4500      2.00000
    235      -3.4500      2.00000
    236      -3.4500      2.00000
    237      -3.4500      2.00000
    238      -3.4500      2.00000
    239      -3.4500      2.00000
    240      -3.4500      2.00000
    241      -3.1498      2.00000
    242      -3.1498      2.00000
    243      -3.1498      2.00000
    244      -3.1498      2.00000
    245      -3.1498      2.00000
    246      -3.1498      2.00000
    247      -3.1498      2.00000
    248      -3.1498      2.00000
    249      -3.0676      2.00000
    250      -3.0676      2.00000
    251      -3.0676      2.00000
    252      -3.0676      2.00000
    253      -3.0676      2.00000
    254      -3.0676      2.00000
    255      -3.0676      2.00000
    256      -3.0676      2.00000
    257      -1.9710      2.00000
    258      -1.9710      2.00000
    259      -1.9710      2.00000
    260      -1.9710      2.00000
    261      -1.9710      2.00000
    262      -1.9710      2.00000
    263      -1.9710      2.00000
    264      -1.9710      2.00000
    265      -1.8965      2.00000
    266      -1.8965      2.00000
    267      -1.8965      2.00000
    268      -1.8965      2.00000
    269      -1.8965      2.00000
    270      -1.8965      2.00000
    271      -1.8965      2.00000
    272      -1.8965      2.00000
    273      -1.5437      2.00000
    274      -1.5437      2.00000
    275      -1.5437      2.00000
    276      -1.5437      2.00000
    277      -1.5437      2.00000
    278      -1.5437      2.00000
    279      -1.5437      2.00000
    280      -1.5437      2.00000
    281      -1.3438      2.00000
    282      -1.3438      2.00000
    283      -1.3438      2.00000
    284      -1.3438      2.00000
    285      -1.3438      2.00000
    286      -1.3438      2.00000
    287      -1.3438      2.00000
    288      -1.3438      2.00000
    289      -1.1554      2.00000
    290      -1.1554      2.00000
    291      -1.1554      2.00000
    292      -1.1554      2.00000
    293      -1.1554      2.00000
    294      -1.1554      2.00000
    295      -1.1554      2.00000
    296      -1.1554      2.00000
    297      -0.8196      2.00000
    298      -0.8196      2.00000
    299      -0.8196      2.00000
    300      -0.8196      2.00000
    301      -0.8196      2.00000
    302      -0.8196      2.00000
    303      -0.8196      2.00000
    304      -0.8196      2.00000
    305      -0.7831      2.00000
    306      -0.7831      2.00000
    307      -0.7831      2.00000
    308      -0.7831      2.00000
    309      -0.7831      2.00000
    310      -0.7831      2.00000
    311      -0.7831      2.00000
    312      -0.7831      2.00000
    313      -0.7099      2.00000
    314      -0.7099      2.00000
    315      -0.7099      2.00000
    316      -0.7099      2.00000
    317      -0.7099      2.00000
    318      -0.7099      2.00000
    319      -0.7099      2.00000
    320      -0.7099      2.00000
    321      -0.6954      2.00000
    322      -0.6953      2.00000
    323      -0.6953      2.00000
    324      -0.6953      2.00000
    325      -0.6953      2.00000
    326      -0.6953      2.00000
    327      -0.6953      2.00000
    328      -0.6953      2.00000
    329      -0.5572      2.00000
    330      -0.5572      2.00000
    331      -0.5572      2.00000
    332      -0.5572      2.00000
    333      -0.5572      2.00000
    334      -0.5571      2.00000
    335      -0.5571      2.00000
    336      -0.5571      2.00000
    337      -0.4124      2.00000
    338      -0.4124      2.00000
    339      -0.4124      2.00000
    340      -0.4124      2.00000
    341      -0.4124      2.00000
    342      -0.4124      2.00000
    343      -0.4124      2.00000
    344      -0.4124      2.00000
    345      -0.4045      2.00000
    346      -0.4045      2.00000
    347      -0.4045      2.00000
    348      -0.4045      2.00000
    349      -0.4045      2.00000
    350      -0.4045      2.00000
    351      -0.4045      2.00000
    352      -0.4045      2.00000
    353      -0.3714      2.00000
    354      -0.3714      2.00000
    355      -0.3714      2.00000
    356      -0.3714      2.00000
    357      -0.3714      2.00000
    358      -0.3714      2.00000
    359      -0.3714      2.00000
    360      -0.3714      2.00000
    361      -0.3259      2.00000
    362      -0.3259      2.00000
    363      -0.3259      2.00000
    364      -0.3259      2.00000
    365      -0.3259      2.00000
    366      -0.3259      2.00000
    367      -0.3259      2.00000
    368      -0.3259      2.00000
    369      -0.2161      2.00000
    370      -0.2161      2.00000
    371      -0.2161      2.00000
    372      -0.2161      2.00000
    373      -0.2161      2.00000
    374      -0.2160      2.00000
    375      -0.2160      2.00000
    376      -0.2160      2.00000
    377      -0.2043      2.00000
    378      -0.2043      2.00000
    379      -0.2043      2.00000
    380      -0.2043      2.00000
    381      -0.2043      2.00000
    382      -0.2043      2.00000
    383      -0.2043      2.00000
    384      -0.2043      2.00000
    385      -0.0485      2.00000
    386      -0.0485      2.00000
    387      -0.0485      2.00000
    388      -0.0485      2.00000
    389      -0.0484      2.00000
    390      -0.0484      2.00000
    391      -0.0484      2.00000
    392      -0.0484      2.00000
    393      -0.0283      2.00000
    394      -0.0283      2.00000
    395      -0.0283      2.00000
    396      -0.0283      2.00000
    397      -0.0283      2.00000
    398      -0.0283      2.00000
    399      -0.0283      2.00000
    400      -0.0283      2.00000
    401      -0.0215      2.00000
    402      -0.0215      2.00000
    403      -0.0215      2.00000
    404      -0.0215      2.00000
    405      -0.0215      2.00000
    406      -0.0215      2.00000
    407      -0.0215      2.00000
    408      -0.0215      2.00000
    409       0.1593      2.00000
    410       0.1593      2.00000
    411       0.1593      2.00000
    412       0.1593      2.00000
    413       0.1593      2.00000
    414       0.1593      2.00000
    415       0.1593      2.00000
    416       0.1593      2.00000
    417       0.7506      2.00000
    418       0.7506      2.00000
    419       0.7506      2.00000
    420       0.7506      2.00000
    421       0.7506      2.00000
    422       0.7507      2.00000
    423       0.7507      2.00000
    424       0.7507      2.00000
    425       0.8033      2.00000
    426       0.8033      2.00000
    427       0.8033      2.00000
    428       0.8033      2.00000
    429       0.8033      2.00000
    430       0.8033      2.00000
    431       0.8033      2.00000
    432       0.8034      2.00000
    433       0.8096      2.00000
    434       0.8096      2.00000
    435       0.8096      2.00000
    436       0.8096      2.00000
    437       0.8096      2.00000
    438       0.8096      2.00000
    439       0.8096      2.00000
    440       0.8096      2.00000
    441       0.9014      2.00000
    442       0.9014      2.00000
    443       0.9014      2.00000
    444       0.9014      2.00000
    445       0.9014      2.00000
    446       0.9015      2.00000
    447       0.9015      2.00000
    448       0.9015      2.00000
    449       0.9932      2.00000
    450       0.9932      2.00000
    451       0.9932      2.00000
    452       0.9932      2.00000
    453       0.9932      2.00000
    454       0.9932      2.00000
    455       0.9932      2.00000
    456       0.9932      2.00000
    457       1.0070      2.00000
    458       1.0070      2.00000
    459       1.0070      2.00000
    460       1.0070      2.00000
    461       1.0071      2.00000
    462       1.0071      2.00000
    463       1.0071      2.00000
    464       1.0071      2.00000
    465       1.0141      2.00000
    466       1.0141      2.00000
    467       1.0141      2.00000
    468       1.0141      2.00000
    469       1.0141      2.00000
    470       1.0141      2.00000
    471       1.0141      2.00000
    472       1.0141      2.00000
    473       1.0231      2.00000
    474       1.0231      2.00000
    475       1.0231      2.00000
    476       1.0231      2.00000
    477       1.0231      2.00000
    478       1.0232      2.00000
    479       1.0232      2.00000
    480       1.0232      2.00000
    481       1.2788      2.00000
    482       1.2788      2.00000
    483       1.2788      2.00000
    484       1.2788      2.00000
    485       1.2788      2.00000
    486       1.2788      2.00000
    487       1.2788      2.00000
    488       1.2788      2.00000
    489       1.2901      2.00000
    490       1.2901      2.00000
    491       1.2901      2.00000
    492       1.2901      2.00000
    493       1.2901      2.00000
    494       1.2901      2.00000
    495       1.2901      2.00000
    496       1.2901      2.00000
    497       1.4725      2.00000
    498       1.4725      2.00000
    499       1.4725      2.00000
    500       1.4725      2.00000
    501       1.4726      2.00000
    502       1.4726      2.00000
    503       1.4726      2.00000
    504       1.4726      2.00000
    505       1.5015      2.00000
    506       1.5015      2.00000
    507       1.5015      2.00000
    508       1.5015      2.00000
    509       1.5016      2.00000
    510       1.5016      2.00000
    511       1.5016      2.00000
    512       1.5016      2.00000
    513       1.6110      2.00000
    514       1.6110      2.00000
    515       1.6110      2.00000
    516       1.6110      2.00000
    517       1.6111      2.00000
    518       1.6111      2.00000
    519       1.6111      2.00000
    520       1.6111      2.00000
    521       1.7871      2.00000
    522       1.7871      2.00000
    523       1.7871      2.00000
    524       1.7871      2.00000
    525       1.7872      2.00000
    526       1.7872      2.00000
    527       1.7872      2.00000
    528       1.7872      2.00000
    529       1.8763      2.00000
    530       1.8763      2.00000
    531       1.8763      2.00000
    532       1.8763      2.00000
    533       1.8763      2.00000
    534       1.8763      2.00000
    535       1.8763      2.00000
    536       1.8763      2.00000
    537       1.9367      2.00000
    538       1.9367      2.00000
    539       1.9367      2.00000
    540       1.9367      2.00000
    541       1.9368      2.00000
    542       1.9368      2.00000
    543       1.9368      2.00000
    544       1.9368      2.00000
    545       2.4421      2.00000
    546       2.4421      2.00000
    547       2.4421      2.00000
    548       2.4421      2.00000
    549       2.4421      2.00000
    550       2.4422      2.00000
    551       2.4422      2.00000
    552       2.4422      2.00000
    553       2.5191      2.00000
    554       2.5191      2.00000
    555       2.5191      2.00000
    556       2.5191      2.00000
    557       2.5191      2.00000
    558       2.5191      2.00000
    559       2.5191      2.00000
    560       2.5191      2.00000
    561       2.5539      2.00000
    562       2.5539      2.00000
    563       2.5539      2.00000
    564       2.5539      2.00000
    565       2.5539      2.00000
    566       2.5540      2.00000
    567       2.5540      2.00000
    568       2.5540      2.00000
    569       2.8738      2.00000
    570       2.8738      2.00000
    571       2.8738      2.00000
    572       2.8738      2.00000
    573       2.8738      2.00000
    574       2.8738      2.00000
    575       2.8738      2.00000
    576       2.8738      2.00000
    577       5.6574      0.00000
    578       5.6574      0.00000
    579       5.6574      0.00000
    580       5.6574      0.00000
    581       5.6574      0.00000
    582       5.6574      0.00000
    583       5.6574      0.00000
    584       5.6574      0.00000
    585       5.7817      0.00000
    586       5.7817      0.00000
    587       5.7817      0.00000
    588       5.7817      0.00000
    589       5.7817      0.00000
    590       5.7817      0.00000
    591       5.7817      0.00000
    592       5.7817      0.00000
    593       6.3937      0.00000
    594       6.3937      0.00000
    595       6.3937      0.00000
    596       6.3937      0.00000
    597       6.3937      0.00000
    598       6.3937      0.00000
    599       6.3937      0.00000
    600       6.3937      0.00000
    601       6.5113      0.00000
    602       6.5113      0.00000
    603       6.5113      0.00000
    604       6.5113      0.00000
    605       6.5113      0.00000
    606       6.5113      0.00000
    607       6.5113      0.00000
    608       6.5113      0.00000
    609       7.0339      0.00000
    610       7.0339      0.00000
    611       7.0339      0.00000
    612       7.0339      0.00000
    613       7.0340      0.00000
    614       7.0340      0.00000
    615       7.0340      0.00000
    616       7.0340      0.00000
    617       7.2631      0.00000
    618       7.2631      0.00000
    619       7.2631      0.00000
    620       7.2631      0.00000
    621       7.2631      0.00000
    622       7.2631      0.00000
    623       7.2631      0.00000
    624       7.2631      0.00000
    625       7.3076      0.00000
    626       7.3076      0.00000
    627       7.3076      0.00000
    628       7.3076      0.00000
    629       7.3076      0.00000
    630       7.3076      0.00000
    631       7.3076      0.00000
    632       7.3076      0.00000
    633       7.3843      0.00000
    634       7.3843      0.00000
    635       7.3843      0.00000
    636       7.3843      0.00000
    637       7.3843      0.00000
    638       7.3843      0.00000
    639       7.3843      0.00000
    640       7.3843      0.00000
    641       8.0675      0.00000
    642       8.0675      0.00000
    643       8.0675      0.00000
    644       8.0675      0.00000
    645       8.0675      0.00000
    646       8.0675      0.00000
    647       8.0675      0.00000
    648       8.0675      0.00000
    649       8.3903      0.00000
    650       8.3903      0.00000
    651       8.3903      0.00000
    652       8.3903      0.00000
    653       8.3903      0.00000
    654       8.3903      0.00000
    655       8.3903      0.00000
    656       8.3903      0.00000
    657       8.4852      0.00000
    658       8.4852      0.00000
    659       8.4852      0.00000
    660       8.4852      0.00000
    661       8.4852      0.00000
    662       8.4852      0.00000
    663       8.4852      0.00000
    664       8.4852      0.00000
    665       8.7937      0.00000
    666       8.7937      0.00000
    667       8.7937      0.00000
    668       8.7937      0.00000
    669       8.7937      0.00000
    670       8.7937      0.00000
    671       8.7937      0.00000
    672       8.7937      0.00000
    673       9.2334      0.00000
    674       9.2337      0.00000
    675       9.2339      0.00000
    676       9.2352      0.00000
    677       9.2377      0.00000
    678       9.2384      0.00000
    679       9.2409      0.00000
    680       9.2457      0.00000
    681       9.2696      0.00000
    682       9.2700      0.00000
    683       9.2708      0.00000
    684       9.2724      0.00000
    685       9.2783      0.00000
    686       9.2827      0.00000
    687       9.3040      0.00000
    688       9.3316      0.00000
    689       9.3437      0.00000
    690       9.3454      0.00000
    691       9.3494      0.00000


--------------------------------------------------------------------------------------------------------


 soft charge-density along one line, spin component            1
         0         1         2         3         4         5         6         7         8         9
 total charge-density along one line
 
 pseudopotential strength for first ion, spin component:            1
 -2.112   0.000   0.000   0.000  -0.002  -2.311  -0.000  -0.000
  0.000  -2.120  -0.000  -0.000  -0.000  -0.000  -2.307   0.000
  0.000  -0.000  -2.121   0.000  -0.000  -0.000   0.000  -2.306
  0.000  -0.000   0.000  -2.120   0.000  -0.000   0.000  -0.000
 -0.002  -0.000  -0.000   0.000  -2.108   0.001  -0.000   0.000
 -2.311  -0.000  -0.000  -0.000   0.001   2.653   0.000   0.000
 -0.000  -2.307   0.000   0.000  -0.000   0.000   2.652  -0.000
 -0.000   0.000  -2.306  -0.000   0.000   0.000  -0.000   2.651
 -0.000   0.000  -0.000  -2.307  -0.000   0.000  -0.000   0.000
  0.001  -0.000   0.000  -0.000  -2.312  -0.000   0.000  -0.000
  0.000  -0.000   0.001  -0.000  -0.000  -0.000   0.000  -0.000
 -0.000   0.000  -0.000   0.000   0.000   0.000  -0.000   0.000
 -0.000   0.000   0.000   0.006   0.000  -0.000  -0.000  -0.000
  0.006  -0.000   0.000   0.000  -0.000  -0.001   0.000  -0.000
 -0.000   0.006  -0.000  -0.000   0.000   0.000  -0.001   0.000
 -0.000   0.000  -0.000   0.000  -0.000   0.000  -0.000   0.000
  0.000   0.000  -0.000  -0.000  -0.000  -0.000  -0.000   0.000
  0.000   0.000   0.000  -0.000  -0.000  -0.000  -0.000  -0.000
 total augmentation occupancy for first ion, spin component:            1
  1.965  -0.000   0.000   0.000  -0.002  -0.012  -0.000   0.000   0.000   0.007   0.000  -0.000   0.000  -0.037  -0.000   0.000
 -0.000   1.966  -0.000  -0.000   0.000  -0.000  -0.009  -0.000   0.000   0.000   0.000   0.000  -0.004  -0.000  -0.035   0.000
  0.000  -0.000   1.965  -0.000   0.000   0.000  -0.000  -0.017  -0.000  -0.000   0.002  -0.002   0.000   0.000  -0.000   0.000
  0.000  -0.000  -0.000   1.966  -0.000   0.000  -0.000  -0.000  -0.009  -0.000  -0.000  -0.000  -0.035   0.000   0.004  -0.009
 -0.002   0.000   0.000  -0.000   1.966   0.007   0.000  -0.000  -0.000  -0.024  -0.000  -0.000   0.000   0.001   0.000   0.000
 -0.012  -0.000   0.000   0.000   0.007   0.101  -0.000   0.000  -0.000   0.000  -0.000   0.000  -0.000   0.100   0.000  -0.000
 -0.000  -0.009  -0.000  -0.000   0.000  -0.000   0.106  -0.000  -0.000  -0.000   0.000  -0.000  -0.001   0.000   0.099   0.000
  0.000  -0.000  -0.017  -0.000  -0.000   0.000  -0.000   0.023   0.000   0.000   0.005  -0.005   0.000   0.000  -0.000  -0.000
  0.000   0.000  -0.000  -0.009  -0.000  -0.000  -0.000   0.000   0.106   0.000  -0.000   0.000   0.099  -0.000   0.001  -0.012
  0.007   0.000  -0.000  -0.000  -0.024   0.000  -0.000   0.000   0.000   0.025   0.000  -0.000   0.000   0.002   0.000  -0.000
  0.000   0.000   0.002  -0.000  -0.000  -0.000   0.000   0.005  -0.000   0.000   0.777  -0.475   0.000  -0.000   0.000  -0.000
 -0.000   0.000  -0.002  -0.000  -0.000   0.000  -0.000  -0.005   0.000  -0.000  -0.475   0.333   0.000   0.000   0.000  -0.000
  0.000  -0.004   0.000  -0.035   0.000  -0.000  -0.001   0.000   0.099   0.000   0.000   0.000   0.141   0.000  -0.000  -0.017
 -0.037  -0.000   0.000   0.000   0.001   0.100   0.000   0.000  -0.000   0.002  -0.000   0.000   0.000   0.144   0.000  -0.000
 -0.000  -0.035  -0.000   0.004   0.000   0.000   0.099  -0.000   0.001   0.000   0.000   0.000  -0.000   0.000   0.141   0.000
  0.000   0.000   0.000  -0.009   0.000  -0.000   0.000  -0.000  -0.012  -0.000  -0.000  -0.000  -0.017  -0.000   0.000   0.003
 -0.009  -0.000   0.000   0.000  -0.000  -0.012   0.000  -0.000   0.000  -0.001   0.000  -0.000  -0.000  -0.018   0.000  -0.000
 -0.000  -0.009  -0.000  -0.000   0.000   0.000  -0.012   0.000  -0.000  -0.000   0.000  -0.000  -0.000   0.000  -0.017   0.000


------------------------ aborting loop because EDIFF is reached ----------------------------------------


    CHARGE:  cpu time      1.1898: real time      1.1933
    FORLOC:  cpu time      0.0424: real time      0.0425
    FORHF :  cpu time    112.5141: real time    113.3259
    FORNL :  cpu time     12.6601: real time     12.6948
    FORCOR:  cpu time     12.7062: real time     12.7408
    FORHAR:  cpu time      0.0411: real time      0.0412
    MIXING:  cpu time      0.0429: real time      0.0430
    OFIELD:  cpu time      0.0000: real time      0.0000

 VOLUME and BASIS-vectors are now :
 -----------------------------------------------------------------------------
  energy-cutoff  :      600.00
  volume of cell :     3108.01
      direct lattice vectors                 reciprocal lattice vectors
    11.564800263  0.000000000  0.000000000     0.086469284  0.000000000  0.000000000
     0.000000000 11.564800263  0.000000000     0.000000000  0.086469284  0.000000000
     0.000000000  0.000000000 23.238399506     0.000000000  0.000000000  0.043032223

  length of vectors
    11.564800263 11.564800263 23.238399506     0.086469284  0.086469284  0.043032223


 FORCES acting on ions
    electron-ion (+dipol)            ewald-force                    non-local-force                 convergence-correction
 -----------------------------------------------------------------------------------------------
   0.234E-04 -.284E-04 0.686E-04   0.588E-06 0.514E-05 0.465E-05   0.216E-21 -.744E-22 0.169E-19   -.242E-04 0.214E-04 -.774E-04
   0.762E-05 0.360E-04 0.162E-04   0.588E-06 0.514E-05 0.465E-05   -.632E-22 0.118E-21 -.678E-20   -.119E-04 -.332E-04 -.235E-05
   0.155E-04 0.159E-04 0.433E-04   0.702E-06 0.397E-05 0.554E-05   -.221E-21 0.000E+00 0.339E-20   -.179E-04 -.230E-04 -.657E-04
   0.107E-04 -.522E-04 0.319E-04   0.702E-06 0.397E-05 0.554E-05   0.155E-22 -.248E-23 0.119E-19   -.141E-04 0.390E-04 -.131E-04
   -.178E-04 0.213E-05 0.585E-04   -.193E-05 0.352E-06 -.110E-05   -.151E-21 -.662E-22 -.339E-20   0.174E-04 -.484E-05 -.777E-04
   -.112E-04 -.133E-04 0.149E-05   -.193E-05 0.352E-06 -.110E-05   0.481E-23 0.728E-22 -.186E-19   0.156E-04 0.135E-04 0.131E-04
   -.236E-04 0.698E-05 0.593E-04   -.182E-05 -.815E-06 -.209E-06   -.312E-22 0.126E-21 0.847E-20   0.285E-04 -.694E-05 -.739E-04
   -.116E-04 0.135E-04 -.233E-06   -.182E-05 -.815E-06 -.209E-06   -.204E-21 0.397E-22 0.407E-19   0.138E-04 -.188E-04 0.162E-04
   0.128E-04 -.184E-04 0.930E-04   0.524E-05 -.390E-05 -.270E-13   0.711E-22 0.893E-22 0.508E-19   -.244E-04 0.131E-04 -.122E-03
   0.107E-04 -.134E-04 -.116E-03   0.524E-05 -.390E-05 -.487E-13   -.364E-22 0.414E-22 -.373E-19   -.123E-04 0.112E-04 0.144E-03
   0.227E-04 0.255E-04 0.192E-03   0.457E-06 -.642E-05 -.575E-05   0.981E-22 -.364E-22 0.695E-19   -.197E-04 -.781E-05 -.216E-03
   -.323E-05 0.267E-04 -.215E-03   0.457E-06 -.642E-05 -.575E-05   0.157E-21 0.662E-22 -.339E-20   0.125E-05 -.265E-04 0.252E-03
   -.259E-04 -.143E-04 -.240E-04   0.272E-05 0.888E-06 0.575E-05   0.110E-21 -.232E-22 -.678E-19   0.338E-04 0.143E-04 0.439E-05
   -.344E-05 -.187E-04 -.348E-04   0.272E-05 0.888E-06 0.575E-05   0.121E-21 0.265E-22 -.339E-19   0.345E-05 0.213E-04 0.627E-04
   -.177E-04 0.132E-04 0.831E-04   -.206E-05 -.163E-05 -.360E-13   0.846E-22 -.199E-22 0.474E-19   0.108E-04 -.102E-04 -.105E-03
   -.625E-05 0.159E-04 -.128E-03   -.206E-05 -.163E-05 -.110E-13   0.144E-22 0.347E-22 -.457E-19   0.984E-05 -.938E-05 0.160E-03
   0.541E-04 -.175E-04 -.149E-03   -.400E-05 0.757E-06 -.465E-05   -.108E-22 0.695E-22 -.203E-19   -.526E-04 0.133E-04 0.182E-03
   0.106E-04 -.228E-04 0.963E-04   -.400E-05 0.757E-06 -.465E-05   0.859E-22 -.119E-21 -.678E-19   -.485E-05 0.204E-04 -.122E-03
   -.402E-05 0.245E-04 -.152E-03   0.783E-06 -.176E-05 0.110E-05   -.942E-22 0.124E-22 0.322E-19   0.315E-05 -.176E-04 0.175E-03
   -.376E-05 0.122E-04 0.804E-04   0.783E-06 -.176E-05 0.110E-05   -.280E-22 -.288E-22 -.695E-19   0.990E-05 -.644E-05 -.110E-03
   -.551E-04 -.216E-04 -.154E-03   -.517E-05 0.643E-06 -.554E-05   -.383E-23 0.146E-21 0.108E-18   0.555E-04 0.160E-04 0.181E-03
   0.940E-05 -.963E-05 0.897E-04   -.517E-05 0.643E-06 -.554E-05   -.130E-21 0.132E-22 -.339E-20   -.802E-05 0.414E-06 -.105E-03
   0.977E-05 0.161E-04 -.137E-03   -.383E-06 -.187E-05 0.209E-06   -.224E-21 0.298E-22 0.983E-19   -.151E-04 -.130E-04 0.159E-03
   0.208E-05 0.833E-05 0.890E-04   -.383E-06 -.187E-05 0.209E-06   0.472E-22 -.165E-22 0.695E-19   -.409E-05 -.555E-05 -.110E-03
   -.630E-04 0.711E-04 -.187E-04   0.652E-06 0.483E-06 0.138E-13   0.907E-22 0.596E-22 -.508E-20   0.678E-04 -.727E-04 0.119E-04
   0.577E-04 -.588E-04 0.396E-04   0.652E-06 0.483E-06 0.201E-12   0.131E-21 0.149E-22 0.220E-19   -.577E-04 0.539E-04 -.467E-04
   -.563E-04 -.651E-04 -.181E-04   0.538E-06 -.683E-06 -.887E-06   0.612E-22 -.132E-22 -.830E-19   0.526E-04 0.579E-04 0.204E-04
   0.579E-04 0.668E-04 0.403E-04   0.538E-06 -.683E-06 -.887E-06   0.475E-22 0.175E-21 -.390E-19   -.524E-04 -.681E-04 -.442E-04
   0.690E-04 0.443E-04 -.138E-04   -.515E-06 0.597E-06 0.887E-06   0.978E-22 0.132E-22 0.102E-19   -.637E-04 -.456E-04 0.105E-04
   -.464E-04 -.506E-04 0.415E-04   -.515E-06 0.597E-06 0.887E-06   -.721E-22 -.662E-22 0.322E-19   0.498E-04 0.595E-04 -.514E-04
   0.548E-04 -.467E-04 0.499E-05   -.628E-06 -.570E-06 0.440E-14   0.815E-22 0.131E-21 -.305E-19   -.508E-04 0.475E-04 0.249E-05
   -.519E-04 0.556E-04 0.396E-04   -.628E-06 -.570E-06 0.982E-13   0.120E-21 0.201E-22 0.390E-19   0.509E-04 -.514E-04 -.407E-04
   -.113E-04 0.168E-03 -.226E-03   -.414E-05 -.121E-06 0.509E-05   0.818E-22 -.678E-22 -.271E-19   0.931E-05 -.165E-03 0.221E-03
   0.176E-04 -.115E-03 0.705E-04   -.414E-05 -.121E-06 0.509E-05   -.195E-22 0.000E+00 0.264E-18   -.200E-04 0.116E-03 -.155E-03
   0.360E-04 -.156E-03 -.207E-03   0.109E-05 -.212E-05 -.136E-05   0.540E-22 0.132E-21 -.291E-18   -.276E-04 0.157E-03 0.206E-03
   0.241E-04 0.112E-03 0.867E-04   0.109E-05 -.212E-05 -.136E-05   -.399E-24 0.860E-22 0.400E-18   -.114E-04 -.122E-03 -.160E-03
   0.397E-05 0.646E-04 -.155E-03   -.566E-05 -.247E-06 0.605E-05   -.173E-22 0.902E-22 -.393E-18   0.122E-04 -.885E-04 0.164E-03
   -.308E-05 -.122E-03 0.497E-04   -.566E-05 -.247E-06 0.605E-05   -.131E-21 0.529E-22 0.210E-18   0.161E-04 0.117E-03 -.124E-03
   -.294E-04 -.785E-04 -.158E-03   -.436E-06 -.225E-05 -.398E-06   -.283E-22 -.397E-22 -.481E-18   0.632E-05 0.927E-04 0.161E-03
   -.357E-04 0.126E-03 0.401E-04   -.436E-06 -.225E-05 -.398E-06   -.370E-22 -.298E-22 0.197E-18   0.220E-04 -.119E-03 -.114E-03
   -.128E-05 -.120E-04 -.170E-03   0.872E-06 0.681E-06 -.165E-12   -.115E-22 0.629E-22 0.264E-18   -.642E-05 0.585E-05 0.173E-03
   0.235E-04 -.258E-04 0.166E-03   0.872E-06 0.681E-06 0.768E-13   -.146E-21 0.000E+00 -.427E-18   -.183E-04 0.176E-04 -.182E-03
   0.322E-04 0.156E-05 0.589E-05   0.747E-06 -.846E-06 0.965E-06   0.987E-22 0.778E-22 -.217E-18   -.256E-04 0.274E-06 0.706E-05
   0.166E-04 0.273E-04 0.385E-04   0.747E-06 -.846E-06 0.965E-06   -.795E-22 0.000E+00 -.474E-19   -.148E-04 -.138E-04 -.456E-04
   -.597E-05 -.312E-04 0.185E-04   -.655E-06 0.807E-06 -.965E-06   0.391E-22 0.199E-22 0.603E-18   0.101E-04 0.198E-04 -.726E-05
   -.399E-04 -.326E-04 0.487E-04   -.655E-06 0.807E-06 -.965E-06   -.365E-22 -.596E-22 -.678E-18   0.192E-04 0.143E-04 -.579E-04
   -.206E-04 0.304E-04 0.906E-04   -.780E-06 -.721E-06 -.126E-12   -.142E-21 0.185E-21 0.495E-18   0.301E-04 -.183E-04 -.888E-04
   -.198E-04 0.282E-04 -.409E-04   -.780E-06 -.721E-06 0.235E-13   -.781E-23 0.152E-21 -.203E-19   0.156E-04 -.138E-04 0.414E-04
   -.141E-03 -.315E-04 0.852E-04   -.312E-06 0.569E-05 -.509E-05   -.300E-22 0.265E-22 0.813E-19   0.142E-03 0.220E-04 -.529E-04
   0.151E-03 -.344E-05 0.725E-04   -.312E-06 0.569E-05 -.509E-05   0.197E-22 -.215E-22 0.163E-18   -.146E-03 -.144E-05 -.909E-05
   -.116E-03 0.117E-04 0.123E-03   -.187E-06 0.416E-05 -.605E-05   -.550E-22 -.212E-21 -.203E-19   0.111E-03 -.167E-04 -.101E-03
   0.709E-04 -.172E-06 0.142E-04   -.187E-06 0.416E-05 -.605E-05   -.699E-22 0.132E-22 0.197E-18   -.923E-04 -.921E-05 0.405E-04
   0.151E-03 -.219E-04 0.101E-03   -.231E-05 0.462E-06 0.136E-05   0.680E-22 0.496E-23 0.217E-18   -.150E-03 0.293E-05 -.756E-04
   -.140E-03 -.460E-04 0.422E-04   -.231E-05 0.462E-06 0.136E-05   0.359E-22 0.132E-22 -.203E-19   0.149E-03 0.308E-04 0.334E-05
   0.121E-03 0.206E-04 0.136E-03   -.219E-05 -.106E-05 0.398E-06   0.579E-22 -.794E-22 -.271E-19   -.118E-03 -.861E-05 -.989E-04
   -.661E-04 0.434E-04 -.794E-05   -.219E-05 -.106E-05 0.398E-06   -.937E-22 0.265E-22 0.197E-18   0.786E-04 -.981E-05 0.526E-04
   -.109E-03 -.394E-04 0.980E-04   0.470E-05 -.513E-05 -.127E-13   -.336E-22 0.265E-22 -.549E-18   0.104E-03 0.466E-04 -.126E-03
   0.114E-03 0.505E-04 -.122E-03   0.470E-05 -.513E-05 0.329E-14   -.179E-22 -.265E-22 0.542E-19   -.112E-03 -.495E-04 0.154E-03
   -.395E-04 0.120E-03 0.103E-03   -.531E-06 -.713E-05 0.645E-05   0.170E-23 0.000E+00 -.745E-19   0.461E-04 -.103E-03 -.154E-03
   0.617E-04 -.988E-04 -.184E-03   -.531E-06 -.713E-05 0.645E-05   0.274E-22 0.000E+00 -.271E-19   -.606E-04 0.112E-03 0.212E-03
   0.405E-04 -.105E-03 0.103E-03   0.269E-05 0.977E-07 -.645E-05   0.103E-21 -.182E-22 -.949E-19   -.501E-04 0.920E-04 -.128E-03
   -.629E-04 0.107E-03 -.165E-03   0.269E-05 0.977E-07 -.645E-05   -.674E-22 0.926E-22 -.678E-20   0.670E-04 -.115E-03 0.199E-03
   0.125E-03 0.505E-04 0.794E-04   -.253E-05 -.190E-05 -.462E-13   0.120E-21 -.265E-22 -.108E-18   -.104E-03 -.523E-04 -.118E-03
   -.106E-03 -.468E-04 -.119E-03   -.253E-05 -.190E-05 0.906E-14   -.362E-22 0.119E-21 0.610E-19   0.108E-03 0.588E-04 0.164E-03
   -.724E-04 -.735E+01 0.785E-04   -.479E-06 0.950E+01 -.876E-06   -.896E-22 -.141E+01 0.000E+00   0.112E-03 0.137E-04 -.127E-03
   0.476E-04 -.735E+01 -.256E-04   -.479E-06 0.950E+01 -.876E-06   -.372E-22 -.141E+01 -.463E-22   -.679E-04 -.133E-03 0.625E-04
   -.808E-04 -.735E+01 0.846E-04   -.479E-06 0.950E+01 -.876E-06   -.497E-22 -.141E+01 0.000E+00   0.117E-03 0.354E-05 -.117E-03
   0.393E-04 -.735E+01 -.240E-04   -.479E-06 0.950E+01 -.876E-06   -.323E-22 -.141E+01 -.662E-23   -.581E-04 -.162E-03 0.507E-04
   0.584E-04 -.735E+01 -.386E-04   -.428E-06 0.950E+01 0.963E-06   0.443E-23 -.141E+01 -.463E-22   -.684E-04 -.105E-03 0.609E-04
   -.605E-04 -.735E+01 0.717E-04   -.428E-06 0.950E+01 0.963E-06   0.232E-22 -.141E+01 0.122E-21   0.932E-04 -.480E-04 -.960E-04
   0.429E-04 -.735E+01 -.631E-05   -.428E-06 0.950E+01 0.963E-06   0.730E-22 -.141E+01 -.265E-22   -.460E-04 -.142E-03 0.236E-04
   -.261E-04 -.735E+01 0.443E-04   -.428E-06 0.950E+01 0.963E-06   -.575E-22 -.141E+01 0.397E-22   0.413E-04 -.107E-04 -.735E-04
   0.404E-04 -.735E+01 -.142E-03   0.110E-05 0.950E+01 0.521E-07   -.261E-21 -.141E+01 0.869E-22   -.787E-04 -.154E-03 0.172E-03
   -.462E-04 -.735E+01 0.122E-03   0.110E-05 0.950E+01 0.521E-07   0.160E-22 -.141E+01 -.103E-21   0.845E-04 0.384E-04 -.163E-03
   0.386E-04 -.735E+01 -.964E-04   0.110E-05 0.950E+01 0.521E-07   -.124E-21 -.141E+01 0.381E-22   -.560E-04 0.959E-04 0.112E-03
   0.188E-04 -.735E+01 0.352E-04   0.110E-05 0.950E+01 0.521E-07   -.511E-22 -.141E+01 0.529E-22   -.361E-04 -.124E-03 -.206E-04
   0.589E-04 -.735E+01 -.143E-03   -.621E-06 0.950E+01 -.157E-07   -.590E-24 -.141E+01 -.397E-22   -.123E-03 -.877E-04 0.201E-03
   -.556E-04 -.735E+01 0.115E-03   -.621E-06 0.950E+01 -.157E-07   -.667E-22 -.141E+01 -.132E-22   0.103E-03 -.302E-05 -.169E-03
   -.423E-04 -.735E+01 -.383E-04   -.621E-06 0.950E+01 -.157E-07   -.163E-22 -.141E+01 -.397E-22   0.516E-04 0.223E-04 0.221E-04
   0.237E-04 -.735E+01 0.114E-04   -.621E-06 0.950E+01 -.157E-07   0.101E-21 -.141E+01 0.119E-21   -.448E-04 -.132E-03 0.119E-07
   -.292E-04 0.735E+01 -.417E-05   0.110E-05 -.950E+01 -.521E-07   -.655E-22 0.141E+01 0.496E-22   0.312E-04 0.136E-03 0.232E-04
   0.311E-04 0.735E+01 0.482E-04   0.110E-05 -.950E+01 -.521E-07   -.209E-21 0.141E+01 -.265E-22   -.473E-04 0.620E-05 -.778E-04
   -.443E-04 0.735E+01 -.383E-04   0.110E-05 -.950E+01 -.521E-07   -.211E-23 0.141E+01 0.000E+00   0.569E-04 0.119E-03 0.643E-04
   0.759E-04 0.735E+01 0.821E-04   0.110E-05 -.950E+01 -.521E-07   -.119E-21 0.141E+01 -.106E-21   -.104E-03 0.553E-04 -.102E-03
   0.638E-04 0.735E+01 0.823E-04   -.621E-06 -.950E+01 0.157E-07   -.114E-22 0.141E+01 0.281E-22   -.103E-03 -.111E-04 -.119E-03
   -.475E-04 0.735E+01 -.314E-04   -.621E-06 -.950E+01 0.157E-07   -.757E-22 0.141E+01 0.172E-21   0.665E-04 0.153E-03 0.538E-04
   0.629E-04 0.735E+01 0.836E-04   -.621E-06 -.950E+01 0.157E-07   -.891E-22 0.141E+01 -.662E-22   -.101E-03 -.126E-04 -.131E-03
   -.530E-04 0.735E+01 -.292E-04   -.621E-06 -.950E+01 0.157E-07   -.106E-21 0.141E+01 0.106E-21   0.752E-04 0.140E-03 0.685E-04
   0.343E-04 0.735E+01 -.416E-04   -.479E-06 -.950E+01 0.876E-06   -.110E-21 0.141E+01 -.662E-22   -.470E-04 -.113E-04 0.214E-04
   -.335E-04 0.735E+01 0.913E-05   -.479E-06 -.950E+01 0.876E-06   -.106E-21 0.141E+01 0.794E-22   0.563E-04 0.144E-03 0.915E-08
   -.654E-04 0.735E+01 -.149E-03   -.479E-06 -.950E+01 0.876E-06   -.688E-22 0.141E+01 0.463E-22   0.125E-03 0.762E-04 0.205E-03
   0.514E-04 0.735E+01 0.119E-03   -.479E-06 -.950E+01 0.876E-06   -.134E-21 0.141E+01 -.106E-21   -.974E-04 -.661E-05 -.177E-03
   -.326E-04 0.735E+01 -.988E-04   -.428E-06 -.950E+01 -.963E-06   -.103E-21 0.141E+01 -.815E-22   0.547E-04 -.849E-04 0.114E-03
   -.736E-05 0.735E+01 0.315E-04   -.428E-06 -.950E+01 -.963E-06   -.559E-22 0.141E+01 -.248E-22   0.247E-04 0.132E-03 -.155E-04
   -.389E-04 0.735E+01 -.136E-03   -.428E-06 -.950E+01 -.963E-06   -.120E-21 0.141E+01 -.728E-22   0.781E-04 0.146E-03 0.168E-03
   0.534E-04 0.735E+01 0.121E-03   -.428E-06 -.950E+01 -.963E-06   -.132E-21 0.141E+01 -.199E-22   -.929E-04 -.469E-04 -.160E-03
   0.735E+01 0.720E-05 0.765E-04   -.950E+01 0.110E-05 -.521E-07   0.141E+01 0.172E-21 0.106E-21   0.126E-03 -.262E-04 -.101E-03
   0.735E+01 0.330E-04 -.285E-04   -.950E+01 0.110E-05 -.521E-07   0.141E+01 0.146E-21 -.529E-22   -.912E-04 -.493E-04 0.244E-04
   0.735E+01 0.331E-04 0.900E-04   -.950E+01 -.621E-06 0.157E-07   0.141E+01 0.000E+00 0.146E-21   0.131E-03 -.563E-04 -.113E-03
   0.735E+01 -.279E-04 -.897E-04   -.950E+01 -.621E-06 0.157E-07   0.141E+01 -.529E-22 -.397E-22   -.140E-04 0.428E-04 0.117E-03
   0.735E+01 -.586E-04 -.178E-04   -.950E+01 0.110E-05 -.521E-07   0.141E+01 0.529E-22 0.331E-22   -.380E-04 0.955E-04 0.461E-04
   0.735E+01 0.341E-04 0.103E-04   -.950E+01 0.110E-05 -.521E-07   0.141E+01 0.122E-21 0.000E+00   0.149E-03 -.722E-04 -.294E-04
   0.735E+01 -.529E-04 -.245E-04   -.950E+01 -.621E-06 0.157E-07   0.141E+01 -.496E-23 0.926E-22   0.620E-05 0.945E-04 0.639E-04
   0.735E+01 0.706E-04 0.112E-04   -.950E+01 -.621E-06 0.157E-07   0.141E+01 0.109E-21 -.132E-22   0.814E-04 -.130E-03 -.562E-04
   -.735E+01 0.608E-04 -.150E-04   0.950E+01 -.479E-06 -.876E-06   -.141E+01 0.662E-22 -.463E-22   0.123E-04 -.108E-03 0.610E-04
   -.735E+01 -.618E-04 0.127E-04   0.950E+01 -.479E-06 -.876E-06   -.141E+01 -.695E-22 -.794E-22   -.782E-04 0.122E-03 -.601E-04
   -.735E+01 0.467E-04 -.225E-04   0.950E+01 -.428E-06 0.963E-06   -.141E+01 0.761E-22 0.893E-22   0.505E-04 -.832E-04 0.479E-04
   -.735E+01 -.427E-04 0.970E-05   0.950E+01 -.428E-06 0.963E-06   -.141E+01 0.794E-22 0.794E-22   -.150E-03 0.801E-04 -.306E-04
   -.735E+01 -.253E-04 0.913E-04   0.950E+01 -.479E-06 -.876E-06   -.141E+01 0.225E-21 -.529E-22   -.150E-03 0.479E-04 -.113E-03
   -.735E+01 0.392E-04 -.859E-04   0.950E+01 -.479E-06 -.876E-06   -.141E+01 0.265E-22 -.265E-22   0.135E-04 -.514E-04 0.115E-03
   -.735E+01 -.135E-04 0.727E-04   0.950E+01 -.428E-06 0.963E-06   -.141E+01 0.662E-22 0.000E+00   -.138E-03 0.329E-04 -.101E-03
   -.735E+01 -.361E-04 -.293E-04   0.950E+01 -.428E-06 0.963E-06   -.141E+01 0.212E-21 0.662E-22   0.889E-04 0.567E-04 0.243E-04
   0.735E+01 0.569E-04 -.652E-05   -.950E+01 -.479E-06 0.876E-06   0.141E+01 0.662E-23 0.132E-22   0.159E-03 -.737E-04 -.126E-04
   0.735E+01 -.664E-04 -.208E-04   -.950E+01 -.479E-06 0.876E-06   0.141E+01 0.106E-21 0.529E-22   -.378E-05 0.105E-03 0.493E-04
   0.735E+01 -.408E-04 -.806E-04   -.950E+01 -.428E-06 -.963E-06   0.141E+01 0.827E-22 0.000E+00   0.867E-05 0.559E-04 0.115E-03
   0.735E+01 0.266E-04 0.646E-04   -.950E+01 -.428E-06 -.963E-06   0.141E+01 0.000E+00 -.232E-22   0.143E-03 -.327E-04 -.866E-04
   0.735E+01 0.560E-04 -.315E-05   -.950E+01 -.479E-06 0.876E-06   0.141E+01 0.993E-22 -.794E-22   0.135E-03 -.773E-04 -.287E-04
   0.735E+01 -.618E-04 -.191E-04   -.950E+01 -.479E-06 0.876E-06   0.141E+01 0.169E-21 0.562E-22   -.159E-04 0.101E-03 0.632E-04
   0.735E+01 -.685E-04 -.112E-03   -.950E+01 -.428E-06 -.963E-06   0.141E+01 -.562E-22 -.662E-23   0.499E-04 0.992E-04 0.137E-03
   0.735E+01 0.431E-04 0.952E-04   -.950E+01 -.428E-06 -.963E-06   0.141E+01 -.662E-23 -.132E-22   0.109E-03 -.571E-04 -.124E-03
   -.735E+01 0.651E-04 -.112E-03   0.950E+01 0.110E-05 0.521E-07   -.141E+01 0.172E-21 -.662E-22   -.529E-04 -.977E-04 0.143E-03
   -.735E+01 -.523E-04 0.954E-04   0.950E+01 0.110E-05 0.521E-07   -.141E+01 -.562E-22 0.000E+00   -.119E-03 0.636E-04 -.124E-03
   -.735E+01 -.497E-04 -.117E-04   0.950E+01 -.621E-06 -.157E-07   -.141E+01 0.761E-22 0.109E-21   -.146E-03 0.690E-04 -.223E-04
   -.735E+01 0.712E-04 -.242E-04   0.950E+01 -.621E-06 -.157E-07   -.141E+01 0.993E-23 -.662E-22   0.846E-05 -.110E-03 0.677E-04
   -.735E+01 0.258E-04 -.768E-04   0.950E+01 0.110E-05 0.521E-07   -.141E+01 0.794E-22 0.265E-22   -.535E-05 -.413E-04 0.112E-03
   -.735E+01 -.369E-04 0.647E-04   0.950E+01 0.110E-05 0.521E-07   -.141E+01 0.993E-22 -.132E-22   -.134E-03 0.396E-04 -.880E-04
   -.735E+01 -.431E-04 0.179E-05   0.950E+01 -.621E-06 -.157E-07   -.141E+01 0.218E-21 0.103E-21   -.147E-03 0.619E-04 -.214E-04
   -.735E+01 0.739E-04 -.180E-04   0.950E+01 -.621E-06 -.157E-07   -.141E+01 -.662E-22 -.265E-22   0.120E-04 -.108E-03 0.487E-04
 -----------------------------------------------------------------------------------------------
   0.290E-04 0.252E-04 0.226E-04   0.703E-12 0.215E-13 -.291E-12   -.355E-14 0.149E-13 0.174E-19   -.191E-04 -.196E-04 0.108E-04
 
 
 POSITION                                       TOTAL-FORCE (eV/Angst)
 -----------------------------------------------------------------------------------
      0.00000      2.89120      2.90480        -0.000000     -0.000000      0.000000
      0.00000      2.89120     14.52400        -0.000000     -0.000000     -0.000000
      0.00000      8.67360      2.90480        -0.000000     -0.000000      0.000000
      0.00000      8.67360     14.52400        -0.000000     -0.000000      0.000000
      5.78240      2.89120      2.90480        -0.000000     -0.000000     -0.000000
      5.78240      2.89120     14.52400        -0.000000     -0.000000      0.000000
      5.78240      8.67360      2.90480        -0.000000     -0.000000     -0.000000
      5.78240      8.67360     14.52400        -0.000000     -0.000000     -0.000000
      0.00000      0.00000      0.00000        -0.000000     -0.000000     -0.000000
      0.00000      0.00000     11.61920        -0.000000     -0.000000     -0.000000
      0.00000      5.78240      0.00000        -0.000000     -0.000000     -0.000000
      0.00000      5.78240     11.61920        -0.000000     -0.000000      0.000000
      5.78240      0.00000      0.00000        -0.000000     -0.000000     -0.000000
      5.78240      0.00000     11.61920        -0.000000     -0.000000      0.000000
      5.78240      5.78240      0.00000        -0.000000     -0.000000     -0.000000
      5.78240      5.78240     11.61920        -0.000000     -0.000000     -0.000000
      2.89120      0.00000      8.71440        -0.000000     -0.000000      0.000000
      2.89120      0.00000     20.33360        -0.000000     -0.000000      0.000000
      2.89120      5.78240      8.71440        -0.000000     -0.000000     -0.000000
      2.89120      5.78240     20.33360        -0.000000     -0.000000     -0.000000
      8.67360      0.00000      8.71440        -0.000000     -0.000000      0.000000
      8.67360      0.00000     20.33360        -0.000000     -0.000000     -0.000000
      8.67360      5.78240      8.71440        -0.000000     -0.000000      0.000000
      8.67360      5.78240     20.33360        -0.000000     -0.000000     -0.000000
      2.89120      2.89120      5.80960        -0.000000     -0.000000      0.000000
      2.89120      2.89120     17.42880        -0.000000     -0.000000     -0.000000
      2.89120      8.67360      5.80960        -0.000000     -0.000000     -0.000000
      2.89120      8.67360     17.42880        -0.000000     -0.000000      0.000000
      8.67360      2.89120      5.80960        -0.000000     -0.000000     -0.000000
      8.67360      2.89120     17.42880        -0.000000     -0.000000      0.000000
      8.67360      8.67360      5.80960        -0.000000     -0.000000     -0.000000
      8.67360      8.67360     17.42880        -0.000000     -0.000000      0.000000
      0.00000      2.89120      8.71440        -0.000000     -0.000000      0.000000
      0.00000      2.89120     20.33360        -0.000000     -0.000000     -0.000000
      0.00000      8.67360      8.71440        -0.000000     -0.000000     -0.000000
      0.00000      8.67360     20.33360        -0.000000     -0.000000      0.000000
      5.78240      2.89120      8.71440        -0.000000     -0.000000     -0.000000
      5.78240      2.89120     20.33360        -0.000000     -0.000000      0.000000
      5.78240      8.67360      8.71440        -0.000000     -0.000000     -0.000000
      5.78240      8.67360     20.33360        -0.000000     -0.000000      0.000000
      0.00000      0.00000      5.80960        -0.000000     -0.000000      0.000000
      0.00000      0.00000     17.42880        -0.000000     -0.000000     -0.000000
      0.00000      5.78240      5.80960        -0.000000     -0.000000     -0.000000
      0.00000      5.78240     17.42880        -0.000000     -0.000000      0.000000
      5.78240      0.00000      5.80960        -0.000000     -0.000000     -0.000000
      5.78240      0.00000     17.42880        -0.000000     -0.000000      0.000000
      5.78240      5.78240      5.80960        -0.000000     -0.000000      0.000000
      5.78240      5.78240     17.42880        -0.000000     -0.000000     -0.000000
      2.89120      0.00000      2.90480        -0.000000     -0.000000      0.000000
      2.89120      0.00000     14.52400        -0.000000     -0.000000      0.000000
      2.89120      5.78240      2.90480        -0.000000     -0.000000      0.000000
      2.89120      5.78240     14.52400        -0.000000     -0.000000      0.000000
      8.67360      0.00000      2.90480        -0.000000     -0.000000     -0.000000
      8.67360      0.00000     14.52400        -0.000000     -0.000000     -0.000000
      8.67360      5.78240      2.90480        -0.000000     -0.000000      0.000000
      8.67360      5.78240     14.52400        -0.000000     -0.000000      0.000000
      2.89120      2.89120      0.00000        -0.000000     -0.000000      0.000000
      2.89120      2.89120     11.61920        -0.000000     -0.000000     -0.000000
      2.89120      8.67360      0.00000        -0.000000     -0.000000      0.000000
      2.89120      8.67360     11.61920        -0.000000     -0.000000     -0.000000
      8.67360      2.89120      0.00000        -0.000000     -0.000000      0.000000
      8.67360      2.89120     11.61920        -0.000000     -0.000000     -0.000000
      8.67360      8.67360      0.00000        -0.000000     -0.000000     -0.000000
      8.67360      8.67360     11.61920        -0.000000     -0.000000     -0.000000
      4.33680      1.53234      4.35720        -0.000000      0.513930     -0.000000
      4.33680      1.53234     15.97640        -0.000000      0.513930      0.000000
      4.33680      7.31474      4.35720        -0.000000      0.513930      0.000000
      4.33680      7.31474     15.97640        -0.000000      0.513930     -0.000000
     10.11920      1.53234      4.35720        -0.000000      0.513930      0.000000
     10.11920      1.53234     15.97640        -0.000000      0.513930     -0.000000
     10.11920      7.31474      4.35720        -0.000000      0.513930     -0.000000
     10.11920      7.31474     15.97640        -0.000000      0.513930     -0.000000
      1.44560      4.42354     10.16680        -0.000000      0.513930      0.000000
      1.44560      4.42354     21.78600        -0.000000      0.513930      0.000000
      1.44560     10.20594     10.16680        -0.000000      0.513930     -0.000000
      1.44560     10.20594     21.78600        -0.000000      0.513930     -0.000000
      7.22800      4.42354     10.16680        -0.000000      0.513930      0.000000
      7.22800      4.42354     21.78600        -0.000000      0.513930      0.000000
      7.22800     10.20594     10.16680        -0.000000      0.513930      0.000000
      7.22800     10.20594     21.78600        -0.000000      0.513930     -0.000000
      1.44560      4.25006      4.35720        -0.000000     -0.513930      0.000000
      1.44560      4.25006     15.97640        -0.000000     -0.513930     -0.000000
      1.44560     10.03246      4.35720        -0.000000     -0.513930      0.000000
      1.44560     10.03246     15.97640        -0.000000     -0.513930     -0.000000
      7.22800      4.25006      4.35720        -0.000000     -0.513930      0.000000
      7.22800      4.25006     15.97640        -0.000000     -0.513930      0.000000
      7.22800     10.03246      4.35720        -0.000000     -0.513930     -0.000000
      7.22800     10.03246     15.97640        -0.000000     -0.513930     -0.000000
      4.33680      1.35886     10.16680        -0.000000     -0.513930      0.000000
      4.33680      1.35886     21.78600        -0.000000     -0.513930     -0.000000
      4.33680      7.14126     10.16680        -0.000000     -0.513930      0.000000
      4.33680      7.14126     21.78600        -0.000000     -0.513930     -0.000000
     10.11920      1.35886     10.16680        -0.000000     -0.513930     -0.000000
     10.11920      1.35886     21.78600        -0.000000     -0.513930      0.000000
     10.11920      7.14126     10.16680        -0.000000     -0.513930     -0.000000
     10.11920      7.14126     21.78600        -0.000000     -0.513930     -0.000000
      1.35886      1.44560      1.45240        -0.513930     -0.000000      0.000000
      1.35886      1.44560     13.07160        -0.513930     -0.000000     -0.000000
      1.35886      7.22800      1.45240        -0.513930     -0.000000     -0.000000
      1.35886      7.22800     13.07160        -0.513930     -0.000000     -0.000000
      7.14126      1.44560      1.45240        -0.513930     -0.000000      0.000000
      7.14126      1.44560     13.07160        -0.513930     -0.000000      0.000000
      7.14126      7.22800      1.45240        -0.513930     -0.000000     -0.000000
      7.14126      7.22800     13.07160        -0.513930     -0.000000     -0.000000
      4.42354      4.33680      1.45240         0.513930     -0.000000      0.000000
      4.42354      4.33680     13.07160         0.513930     -0.000000      0.000000
      4.42354     10.11920      1.45240         0.513930     -0.000000      0.000000
      4.42354     10.11920     13.07160         0.513930     -0.000000      0.000000
     10.20594      4.33680      1.45240         0.513930     -0.000000      0.000000
     10.20594      4.33680     13.07160         0.513930     -0.000000     -0.000000
     10.20594     10.11920      1.45240         0.513930     -0.000000      0.000000
     10.20594     10.11920     13.07160         0.513930     -0.000000     -0.000000
      4.25006      4.33680      7.26200        -0.513930     -0.000000      0.000000
      4.25006      4.33680     18.88120        -0.513930     -0.000000     -0.000000
      4.25006     10.11920      7.26200        -0.513930     -0.000000     -0.000000
      4.25006     10.11920     18.88120        -0.513930     -0.000000      0.000000
     10.03246      4.33680      7.26200        -0.513930     -0.000000     -0.000000
     10.03246      4.33680     18.88120        -0.513930     -0.000000     -0.000000
     10.03246     10.11920      7.26200        -0.513930     -0.000000     -0.000000
     10.03246     10.11920     18.88120        -0.513930     -0.000000      0.000000
      1.53234      1.44560      7.26200         0.513930     -0.000000      0.000000
      1.53234      1.44560     18.88120         0.513930     -0.000000      0.000000
      1.53234      7.22800      7.26200         0.513930     -0.000000      0.000000
      1.53234      7.22800     18.88120         0.513930     -0.000000      0.000000
      7.31474      1.44560      7.26200         0.513930     -0.000000     -0.000000
      7.31474      1.44560     18.88120         0.513930     -0.000000      0.000000
      7.31474      7.22800      7.26200         0.513930     -0.000000      0.000000
      7.31474      7.22800     18.88120         0.513930     -0.000000     -0.000000
 -----------------------------------------------------------------------------------
    total drift:                                0.000010      0.000006      0.000033


--------------------------------------------------------------------------------------------------------



  FREE ENERGIE OF THE ION-ELECTRON SYSTEM (eV)
  ---------------------------------------------------
  free  energy   TOTEN  =      -666.35713525 eV

  energy  without entropy=     -666.35713525  energy(sigma->0) =     -666.35713525
 


--------------------------------------------------------------------------------------------------------


    POTLOK:  cpu time     12.5731: real time     12.7000


--------------------------------------------------------------------------------------------------------


 writing wavefunctions
     LOOP+:  cpu time   2170.0330: real time   2185.4405
    4ORBIT:  cpu time      0.0000: real time      0.0000

 total amount of memory used by VASP MPI-rank0 10683273. kBytes
=======================================================================

   base                                    :      30000. kBytes
   nonl-proj                               :     481520. kBytes
   fftplans                                :     483948. kBytes
   grid                                    :     980434. kBytes
   one-center                              :       1990. kBytes
   HF                                      :        194. kBytes
   nonlr-proj                              :      67968. kBytes
   wavefun                                 :    7015695. kBytes
   fock_wrk                                :    1621524. kBytes
 
  
  
 General timing and accounting informations for this job:
 ========================================================
  
                  Total CPU time used (sec):     2218.584
                            User time (sec):     2191.477
                          System time (sec):       27.107
                         Elapsed time (sec):     2237.843
  
                   Maximum memory used (kb):    17733728.
                   Average memory used (kb):          N/A
  
                          Minor page faults:       407183
                          Major page faults:         9533
                 Voluntary context switches:        48116
