<?xml version="1.0" encoding="ISO-8859-1"?>
<modeling>
 <generator>
  <i name="program" type="string">vasp </i>
  <i name="version" type="string">6.5.1  </i>
  <i name="subversion" type="string">10Mar25 (build Sep 17 2025 13:25:28) complex                          parallel </i>
  <i name="platform" type="string">LinuxNV </i>
  <i name="date" type="string">2026 02 13 </i>
  <i name="time" type="string">13:00:21 </i>
 </generator>
 <incar>
  <i type="string" name="SYSTEM">CuInSe</i>
  <i type="int" name="ISTART">     1</i>
  <i type="string" name="PREC">accurate</i>
  <i type="string" name="ALGO">Normal</i>
  <i type="int" name="NELMIN">     3</i>
  <i name="EDIFF">      0.00001000</i>
  <i name="ENCUT">    600.00000000</i>
  <i name="TIME">      0.40000000</i>
  <i type="int" name="ISMEAR">     0</i>
  <i name="SIGMA">      0.01000000</i>
  <i type="int" name="LMAXMIX">     4</i>
  <i name="HFSCREEN">      0.20000000</i>
  <i type="logical" name="LHFCALC"> T  </i>
  <i type="int" name="NKRED">     2</i>
  <i name="AEXX">      0.25000000</i>
  <i type="string" name="PRECFOCK">Normal</i>
 </incar>
 <primitive_cell>
  <structure name="primitive_cell" >
   <crystal>
    <varray name="basis" >
     <v>       2.89120007      -2.89120007      -5.80959988 </v>
     <v>      -2.89120007       2.89120007      -5.80959988 </v>
     <v>       2.89120007       2.89120007       5.80959988 </v>
    </varray>
    <i name="volume">    194.25066033 </i>
    <varray name="rec_basis" >
     <v>       0.17293857       0.00000000      -0.08606445 </v>
     <v>      -0.00000000       0.17293857      -0.08606445 </v>
     <v>       0.17293857       0.17293857       0.00000000 </v>
    </varray>
   </crystal>
   <varray name="positions" >
    <v>       0.75000000       0.25000000       0.50000000 </v>
    <v>       0.00000000       0.00000000       0.00000000 </v>
    <v>       0.25000000       0.75000000       0.50000000 </v>
    <v>       0.50000000       0.50000000       0.00000000 </v>
    <v>       0.37500000       0.88999999       0.01499999 </v>
    <v>       0.87500000       0.36000001       0.98500001 </v>
    <v>       0.11000000       0.12500000       0.48500000 </v>
    <v>       0.63999999       0.62500000       0.51499999 </v>
   </varray>
  </structure>
  <varray name="primitive_index" >
   <v type="int" >        1 </v>
   <v type="int" >        9 </v>
   <v type="int" >       33 </v>
   <v type="int" >       41 </v>
   <v type="int" >       69 </v>
   <v type="int" >       81 </v>
   <v type="int" >       97 </v>
   <v type="int" >      109 </v>
  </varray>
 </primitive_cell>
 <kpoints>
  <generation param="Gamma">
   <v type="int" name="divisions">       2        2        2 </v>
   <v name="usershift">      0.00000000       0.00000000       0.00000000 </v>
   <v name="genvec1">      0.50000000       0.00000000       0.00000000 </v>
   <v name="genvec2">      0.00000000       0.50000000       0.00000000 </v>
   <v name="genvec3">      0.00000000       0.00000000       0.50000000 </v>
   <v name="shift">      0.00000000       0.00000000       0.00000000 </v>
  </generation>
  <varray name="kpointlist" >
   <v>       0.00000000       0.00000000       0.00000000 </v>
   <v>       0.50000000       0.00000000       0.00000000 </v>
   <v>       0.50000000       0.50000000       0.00000000 </v>
   <v>       0.00000000       0.00000000       0.50000000 </v>
   <v>       0.50000000       0.00000000       0.50000000 </v>
   <v>       0.50000000       0.50000000       0.50000000 </v>
  </varray>
  <varray name="weights" >
   <v>       0.12500000 </v>
   <v>       0.25000000 </v>
   <v>       0.12500000 </v>
   <v>       0.12500000 </v>
   <v>       0.25000000 </v>
   <v>       0.12500000 </v>
  </varray>
 </kpoints>
 <parameters>
  <separator name="general" >
   <i type="string" name="SYSTEM">CuInSe</i>
   <i type="logical" name="LCOMPAT"> F  </i>
  </separator>
  <separator name="electronic" >
   <i type="string" name="PREC">accura</i>
   <i name="ENMAX">    600.00000000</i>
   <i name="ENAUG">    516.45600000</i>
   <i name="EDIFF">      0.00001000</i>
   <i type="int" name="IALGO">    38</i>
   <i type="int" name="IWAVPR">    10</i>
   <i type="int" name="NBANDS">   691</i>
   <i type="int" name="NBANDSLOW">    -1</i>
   <i type="int" name="NBANDSHIGH">    -1</i>
   <i name="NELECT">   1152.00000000</i>
   <i type="int" name="TURBO">     0</i>
   <i type="int" name="IRESTART">     0</i>
   <i type="int" name="NREBOOT">     0</i>
   <i type="int" name="NMIN">     0</i>
   <i name="EREF">      0.00000000</i>
   <separator name="electronic smearing" >
    <i type="int" name="ISMEAR">     0</i>
    <i name="SIGMA">      0.01000000</i>
    <i name="KSPACING">      0.50000000</i>
    <i type="logical" name="KGAMMA"> T  </i>
    <i type="logical" name="KBLOWUP"> T  </i>
   </separator>
   <separator name="electronic projectors" >
    <i type="logical" name="LREAL"> F  </i>
    <v name="ROPT">      0.00000000      0.00000000      0.00000000</v>
    <i type="int" name="LMAXPAW">  -100</i>
    <i type="int" name="LMAXMIX">     4</i>
    <i type="logical" name="NLSPLINE"> F  </i>
   </separator>
   <separator name="electronic startup" >
    <i type="int" name="ISTART">     0</i>
    <i type="int" name="ICHARG">     2</i>
    <i type="int" name="INIWAV">     1</i>
   </separator>
   <separator name="electronic spin" >
    <i type="int" name="ISPIN">     1</i>
    <i type="logical" name="LNONCOLLINEAR"> F  </i>
    <v name="MAGMOM">      1.00000000      1.00000000      1.00000000      1.00000000      1.00000000      1.00000000      1.00000000      1.00000000      1.00000000      1.00000000      1.00000000      1.00000000      1.00000000      1.00000000      1.00000000      1.00000000      1.00000000      1.00000000      1.00000000      1.00000000
      1.00000000      1.00000000      1.00000000      1.00000000      1.00000000      1.00000000      1.00000000      1.00000000      1.00000000      1.00000000      1.00000000      1.00000000      1.00000000      1.00000000      1.00000000      1.00000000      1.00000000      1.00000000      1.00000000      1.00000000
      1.00000000      1.00000000      1.00000000      1.00000000      1.00000000      1.00000000      1.00000000      1.00000000      1.00000000      1.00000000      1.00000000      1.00000000      1.00000000      1.00000000      1.00000000      1.00000000      1.00000000      1.00000000      1.00000000      1.00000000
      1.00000000      1.00000000      1.00000000      1.00000000      1.00000000      1.00000000      1.00000000      1.00000000      1.00000000      1.00000000      1.00000000      1.00000000      1.00000000      1.00000000      1.00000000      1.00000000      1.00000000      1.00000000      1.00000000      1.00000000
      1.00000000      1.00000000      1.00000000      1.00000000      1.00000000      1.00000000      1.00000000      1.00000000      1.00000000      1.00000000      1.00000000      1.00000000      1.00000000      1.00000000      1.00000000      1.00000000      1.00000000      1.00000000      1.00000000      1.00000000
      1.00000000      1.00000000      1.00000000      1.00000000      1.00000000      1.00000000      1.00000000      1.00000000      1.00000000      1.00000000      1.00000000      1.00000000      1.00000000      1.00000000      1.00000000      1.00000000      1.00000000      1.00000000      1.00000000      1.00000000
      1.00000000      1.00000000      1.00000000      1.00000000      1.00000000      1.00000000      1.00000000      1.00000000</v>
    <i name="NUPDOWN">     -1.00000000</i>
    <i type="logical" name="LSORBIT"> F  </i>
    <v name="SAXIS">      0.00000000      0.00000000      1.00000000</v>
    <i type="logical" name="LSPIRAL"> F  </i>
    <v name="QSPIRAL">      0.00000000      0.00000000      0.00000000</v>
    <i type="logical" name="LZEROZ"> F  </i>
   </separator>
   <separator name="electronic exchange-correlation" >
    <i type="logical" name="LASPH"> F  </i>
   </separator>
   <separator name="electronic convergence" >
    <i type="int" name="NELM">    60</i>
    <i type="int" name="NELMDL">     0</i>
    <i type="int" name="NELMIN">     3</i>
    <i name="ENINI">    600.00000000</i>
    <separator name="electronic convergence detail" >
     <i type="logical" name="LDIAG"> T  </i>
     <i type="logical" name="LSUBROT"> F  </i>
     <i type="logical" name="LROBUST"> F  </i>
     <i type="int" name="ISEARCH">     0</i>
     <i name="WEIMIN">      0.00000000</i>
     <i name="EBREAK">      0.00000000</i>
     <i name="DEPER">      0.30000000</i>
     <i type="int" name="NRMM">     4</i>
     <i name="TIME">      0.40000000</i>
    </separator>
   </separator>
   <separator name="electronic mixer" >
    <i name="AMIX">      0.40000000</i>
    <i name="BMIX">      1.00000000</i>
    <i name="AMIN">      0.10000000</i>
    <i name="AMIX_MAG">      1.60000000</i>
    <i name="BMIX_MAG">      1.00000000</i>
    <separator name="electronic mixer details" >
     <i type="int" name="IMIX">     1</i>
     <i type="logical" name="MIXFIRST"> F  </i>
     <i type="int" name="MAXMIX">   -45</i>
     <i name="WC">    100.00000000</i>
     <i type="int" name="INIMIX">     1</i>
     <i type="int" name="MIXPRE">     1</i>
     <i type="int" name="MREMOVE">     5</i>
    </separator>
   </separator>
   <separator name="electronic dipolcorrection" >
    <i type="logical" name="LDIPOL"> F  </i>
    <i type="logical" name="LMONO"> F  </i>
    <i type="int" name="IDIPOL">     0</i>
    <i name="EPSILON">      1.00000000</i>
    <v name="DIPOL">   -100.00000000   -100.00000000   -100.00000000</v>
    <i name="EFIELD">      0.00000000</i>
    <i type="logical" name="LVACPOTAV"> F  </i>
   </separator>
  </separator>
  <separator name="grids" >
   <i type="int" name="NGX">    96</i>
   <i type="int" name="NGY">    96</i>
   <i type="int" name="NGZ">   192</i>
   <i type="int" name="NGXF">   192</i>
   <i type="int" name="NGYF">   192</i>
   <i type="int" name="NGZF">   384</i>
   <i type="logical" name="ADDGRID"> F  </i>
  </separator>
  <separator name="ionic" >
   <i type="int" name="NSW">     0</i>
   <i type="int" name="IBRION">    -1</i>
   <i type="int" name="MDALGO">     0</i>
   <i type="int" name="ISIF">     0</i>
   <i name="PSTRESS">      0.00000000</i>
   <i name="EDIFFG">      0.00010000</i>
   <i type="int" name="NFREE">     0</i>
   <i name="POTIM">      0.50000000</i>
   <i name="SMASS">     -3.00000000</i>
   <i name="SCALEE">      1.00000000</i>
  </separator>
  <separator name="ionic md" >
   <i name="TEBEG">      0.00010000</i>
   <i name="TEEND">      0.00010000</i>
   <i type="int" name="NBLOCK">     1</i>
   <i type="int" name="KBLOCK">     1</i>
   <i type="int" name="NPACO">   256</i>
   <i name="APACO">     10.00000000</i>
  </separator>
  <separator name="symmetry" >
   <i type="int" name="ISYM">     3</i>
   <i name="SYMPREC">      0.00001000</i>
  </separator>
  <separator name="dos" >
   <i type="int" name="LORBIT">     0</i>
   <v name="RWIGS">     -1.00000000     -1.00000000     -1.00000000</v>
   <i type="int" name="NEDOS">   301</i>
   <i name="EMIN">     10.00000000</i>
   <i name="EMAX">    -10.00000000</i>
   <i name="EFERMI">      0.00000000</i>
  </separator>
  <separator name="writing" >
   <i type="int" name="NWRITE">     2</i>
   <i type="logical" name="LWAVE"> T  </i>
   <i type="logical" name="LDOWNSAMPLE"> F  </i>
   <i type="logical" name="LCHARG"> T  </i>
   <i type="logical" name="LPARD"> F  </i>
   <i type="logical" name="LVTOT"> F  </i>
   <i type="logical" name="LVHAR"> F  </i>
   <i type="logical" name="LELF"> F  </i>
   <i type="logical" name="LOPTICS"> F  </i>
   <v name="STM">      0.00000000      0.00000000      0.00000000      0.00000000      0.00000000      0.00000000      0.00000000</v>
  </separator>
  <separator name="performance" >
   <i type="int" name="NPAR">     1</i>
   <i type="int" name="NSIM">     4</i>
   <i type="int" name="NBLK">    -1</i>
   <i type="logical" name="LPLANE"> T  </i>
   <i type="logical" name="LSCALAPACK"> T  </i>
   <i type="logical" name="LSCAAWARE"> F  </i>
   <i type="logical" name="LSCALU"> F  </i>
   <i type="logical" name="LASYNC"> F  </i>
   <i type="logical" name="LORBITALREAL"> F  </i>
  </separator>
  <separator name="miscellaneous" >
   <i type="int" name="IDIOT">     3</i>
   <i type="int" name="PHON_NSTRUCT">    -1</i>
   <i type="logical" name="LMUSIC"> F  </i>
   <v name="POMASS">     63.54600000    114.82000000     78.96000000</v>
   <v name="DARWINR">      0.00000000      0.00000000      0.00000000</v>
   <v name="DARWINV">      1.00000000      1.00000000      1.00000000</v>
   <i type="logical" name="LCORR"> T  </i>
  </separator>
  <i type="logical" name="GGA_COMPAT"> T  </i>
  <i type="logical" name="LBERRY"> F  </i>
  <i type="int" name="ICORELEVEL">     0</i>
  <i type="logical" name="LDAU"> F  </i>
  <i type="int" name="I_CONSTRAINED_M">     0</i>
  <separator name="electronic exchange-correlation" >
   <i type="string" name="GGA    ">PE</i>
   <i type="string" name="XC_C">1</i>
   <i type="int" name="VOSKOWN">     0</i>
   <i type="logical" name="LHFCALC"> T  </i>
   <i type="string" name="PRECFOCK">normal</i>
   <i type="logical" name="LSYMGRAD"> F  </i>
   <i type="logical" name="LHFONE"> F  </i>
   <i type="logical" name="LRHFCALC"> F  </i>
   <i type="logical" name="LTHOMAS"> F  </i>
   <i type="logical" name="LMODELHF"> F  </i>
   <i type="logical" name="LFOCKACE"> T  </i>
   <i name="ENCUT4O">     -1.00000000</i>
   <i type="int" name="EXXOEP">     0</i>
   <i type="int" name="FOURORBIT">     0</i>
   <i name="AEXX">      0.25000000</i>
   <i name="HFALPHA">     -1.00000000</i>
   <i name="MCALPHA">      0.00000000</i>
   <i name="ALDAX">      0.75000000</i>
   <i name="AGGAX">      0.75000000</i>
   <i name="AMGGAX">      0.75000000</i>
   <i name="ALDAC">      1.00000000</i>
   <i name="AGGAC">      1.00000000</i>
   <i name="AMGGAC">      1.00000000</i>
   <i type="int" name="NKREDX">     2</i>
   <i type="int" name="NKREDY">     2</i>
   <i type="int" name="NKREDZ">     2</i>
   <i type="logical" name="SHIFTRED"> F  </i>
   <i type="logical" name="ODDONLY"> F  </i>
   <i type="logical" name="EVENONLY"> F  </i>
   <i type="int" name="LMAXFOCK">     4</i>
   <i type="int" name="NMAXFOCKAE">     1</i>
   <i type="logical" name="LFOCKAEDFT"> F  </i>
   <i name="HFSCREEN">      0.20000000</i>
   <i name="HFSCREENC">      0.20000000</i>
   <i type="int" name="NBANDSGWLOW">     1</i>
  </separator>
  <separator name="vdW DFT" >
   <i type="logical" name="LUSE_VDW"> F  </i>
   <i type="int" name="IVDW_NL">    -1</i>
   <i type="logical" name="LSPIN_VDW"> F  </i>
   <i name="ZAB_VDW">     -0.84910000</i>
   <i name="GAMMA_VDW">      1.39626340</i>
   <i name="ALPHA_VDW">      0.00000000</i>
   <i name="PARAM1">      0.12340000</i>
   <i name="PARAM2">      1.00000000</i>
   <i name="BPARAM">      6.30000000</i>
   <i name="CPARAM">      0.00930000</i>
  </separator>
  <separator name="model GW" >
   <i type="int" name="MODEL_GW">     0</i>
   <i name="MODEL_EPS0">     14.56879952</i>
   <i name="MODEL_ALPHA">      1.00000000</i>
  </separator>
  <separator name="linear response parameters" >
   <i type="logical" name="LEPSILON"> F  </i>
   <i type="logical" name="LRPA"> F  </i>
   <i type="logical" name="LNABLA"> F  </i>
   <i type="logical" name="LVEL"> F  </i>
   <i name="CSHIFT">      0.10000000</i>
   <i name="OMEGAMAX">     -1.00000000</i>
   <i name="DEG_THRESHOLD">      0.00200000</i>
   <i name="RTIME">     -0.10000000</i>
   <i name="WPLASMAI">      0.00000000</i>
   <v name="DFIELD">      0.00000000      0.00000000      0.00000000</v>
   <v name="WPLASMA">      0.00000000      0.00000000      0.00000000      0.00000000      0.00000000      0.00000000      0.00000000      0.00000000      0.00000000</v>
  </separator>
  <separator name="orbital magnetization" >
   <i type="logical" name="NUCIND"> F  </i>
   <v name="MAGPOS">      0.00000000      0.00000000      0.00000000</v>
   <i type="logical" name="LNICSALL"> T  </i>
   <i type="logical" name="ORBITALMAG"> F  </i>
   <i type="logical" name="LMAGBLOCH"> F  </i>
   <i type="logical" name="LCHIMAG"> F  </i>
   <i type="logical" name="LGAUGE"> T  </i>
   <i type="int" name="MAGATOM">     0</i>
   <v name="MAGDIPOL">      0.00000000      0.00000000      0.00000000</v>
   <v name="AVECCONST">      0.00000000      0.00000000      0.00000000</v>
  </separator>
  <separator name="response functions" >
   <i type="logical" name="LALL_IN_ONE"> F  </i>
   <i type="int" name="IALL_IN_ONE">    -1</i>
   <i type="int" name="NBANDS_WAVE">    -1</i>
   <i type="logical" name="LFINITE_TEMPERATURE"> F  </i>
   <i type="logical" name="LADDER"> F  </i>
   <i type="logical" name="LRPAFORCE"> F  </i>
   <i type="logical" name="LFXC"> F  </i>
   <i type="logical" name="LHARTREE"> T  </i>
   <i type="int" name="IBSE">     2</i>
   <v type="int" name="KPOINT">    -1     0     0     0</v>
   <i type="logical" name="LTCTC"> F  </i>
   <i type="logical" name="LTCTE"> F  </i>
   <i type="logical" name="LTETE"> F  </i>
   <i type="logical" name="LTRIPLET"> F  </i>
   <i type="logical" name="LFXCEPS"> F  </i>
   <i type="logical" name="LFXHEG"> F  </i>
   <i type="int" name="NATURALO">     2</i>
   <i type="logical" name="LHOLEGF"> F  </i>
   <i type="logical" name="L2ORDER"> F  </i>
   <i type="logical" name="LDMP1"> F  </i>
   <i type="logical" name="LMP2LT"> F  </i>
   <i type="logical" name="LSMP2LT"> F  </i>
   <i type="logical" name="LGWLF"> F  </i>
   <i name="ENCUTGW">     -1.60000002</i>
   <i name="ENCUTGWSOFT">     -1.60000002</i>
   <i name="ENCUTLF">     -1.00000000</i>
   <i type="logical" name="ESF_SPLINES"> F  </i>
   <i name="ESF_CONV">      0.01000000</i>
   <i type="int" name="ESF_NINTER">    15</i>
   <i type="int" name="LMAXMP2">    -1</i>
   <i name="SCISSOR">      0.00000000</i>
   <i type="int" name="NOMEGA">     0</i>
   <i type="int" name="NOMEGAR">     0</i>
   <i type="int" name="NBANDSGW">    -1</i>
   <i type="int" name="NBANDSO">    -1</i>
   <i type="int" name="NBANDSV">    -1</i>
   <i type="int" name="NELMGW">     1</i>
   <i type="int" name="NELMHF">     1</i>
   <i type="int" name="DIM">     3</i>
   <i type="int" name="IESPILON">     4</i>
   <i type="int" name="ANTIRES">     0</i>
   <i name="OMEGAMAX">    -30.00000000</i>
   <i name="OMEGAMIN">    -30.00000000</i>
   <i name="OMEGATL">   -200.00000000</i>
   <i type="int" name="OMEGAGRID">     0</i>
   <i name="CSHIFT">     -0.10000000</i>
   <i type="logical" name="LSELFENERGY"> F  </i>
   <i type="logical" name="LSPECTRAL"> F  </i>
   <i type="logical" name="LSPECTRALGW"> F  </i>
   <i type="logical" name="LSINGLES"> F  </i>
   <i type="logical" name="LFERMIGW"> F  </i>
   <i type="logical" name="ODDONLYGW"> F  </i>
   <i type="logical" name="EVENONLYGW"> F  </i>
   <i type="int" name="NKREDLFX">     1</i>
   <i type="int" name="NKREDLFY">     1</i>
   <i type="int" name="NKREDLFZ">     1</i>
   <i type="int" name="MAXMEM">  2800</i>
   <i type="int" name="TELESCOPE">     0</i>
   <i type="int" name="NTAUPAR">    -1</i>
   <i type="int" name="NOMEGAPAR">    -1</i>
   <i name="DAMP_NEWTON">      0.80000001</i>
   <i name="LAMBDA">      1.00000000</i>
  </separator>
  <separator name="External order field" >
   <i name="OFIELD_KAPPA">      0.00000000</i>
   <v name="OFIELD_K">      0.00000000      0.00000000      0.00000000</v>
   <i name="OFIELD_Q6_NEAR">      0.00000000</i>
   <i name="OFIELD_Q6_FAR">      0.00000000</i>
   <i name="OFIELD_A">      0.00000000</i>
  </separator>
  <separator name="optional k-points parameters" >
   <i type="int" name="KPOINTS_OPT_MODE">     1</i>
   <i type="logical" name="LKPOINTS_OPT"> F  </i>
  </separator>
 </parameters>
 <atominfo>
  <atoms>     128 </atoms>
  <types>       3 </types>
  <array name="atoms" >
   <dimension dim="1">ion</dimension>
   <field type="string">element</field>
   <field type="int">atomtype</field>
   <set>
    <rc><c>Cu</c><c>   1</c></rc>
    <rc><c>Cu</c><c>   1</c></rc>
    <rc><c>Cu</c><c>   1</c></rc>
    <rc><c>Cu</c><c>   1</c></rc>
    <rc><c>Cu</c><c>   1</c></rc>
    <rc><c>Cu</c><c>   1</c></rc>
    <rc><c>Cu</c><c>   1</c></rc>
    <rc><c>Cu</c><c>   1</c></rc>
    <rc><c>Cu</c><c>   1</c></rc>
    <rc><c>Cu</c><c>   1</c></rc>
    <rc><c>Cu</c><c>   1</c></rc>
    <rc><c>Cu</c><c>   1</c></rc>
    <rc><c>Cu</c><c>   1</c></rc>
    <rc><c>Cu</c><c>   1</c></rc>
    <rc><c>Cu</c><c>   1</c></rc>
    <rc><c>Cu</c><c>   1</c></rc>
    <rc><c>Cu</c><c>   1</c></rc>
    <rc><c>Cu</c><c>   1</c></rc>
    <rc><c>Cu</c><c>   1</c></rc>
    <rc><c>Cu</c><c>   1</c></rc>
    <rc><c>Cu</c><c>   1</c></rc>
    <rc><c>Cu</c><c>   1</c></rc>
    <rc><c>Cu</c><c>   1</c></rc>
    <rc><c>Cu</c><c>   1</c></rc>
    <rc><c>Cu</c><c>   1</c></rc>
    <rc><c>Cu</c><c>   1</c></rc>
    <rc><c>Cu</c><c>   1</c></rc>
    <rc><c>Cu</c><c>   1</c></rc>
    <rc><c>Cu</c><c>   1</c></rc>
    <rc><c>Cu</c><c>   1</c></rc>
    <rc><c>Cu</c><c>   1</c></rc>
    <rc><c>Cu</c><c>   1</c></rc>
    <rc><c>In</c><c>   2</c></rc>
    <rc><c>In</c><c>   2</c></rc>
    <rc><c>In</c><c>   2</c></rc>
    <rc><c>In</c><c>   2</c></rc>
    <rc><c>In</c><c>   2</c></rc>
    <rc><c>In</c><c>   2</c></rc>
    <rc><c>In</c><c>   2</c></rc>
    <rc><c>In</c><c>   2</c></rc>
    <rc><c>In</c><c>   2</c></rc>
    <rc><c>In</c><c>   2</c></rc>
    <rc><c>In</c><c>   2</c></rc>
    <rc><c>In</c><c>   2</c></rc>
    <rc><c>In</c><c>   2</c></rc>
    <rc><c>In</c><c>   2</c></rc>
    <rc><c>In</c><c>   2</c></rc>
    <rc><c>In</c><c>   2</c></rc>
    <rc><c>In</c><c>   2</c></rc>
    <rc><c>In</c><c>   2</c></rc>
    <rc><c>In</c><c>   2</c></rc>
    <rc><c>In</c><c>   2</c></rc>
    <rc><c>In</c><c>   2</c></rc>
    <rc><c>In</c><c>   2</c></rc>
    <rc><c>In</c><c>   2</c></rc>
    <rc><c>In</c><c>   2</c></rc>
    <rc><c>In</c><c>   2</c></rc>
    <rc><c>In</c><c>   2</c></rc>
    <rc><c>In</c><c>   2</c></rc>
    <rc><c>In</c><c>   2</c></rc>
    <rc><c>In</c><c>   2</c></rc>
    <rc><c>In</c><c>   2</c></rc>
    <rc><c>In</c><c>   2</c></rc>
    <rc><c>In</c><c>   2</c></rc>
    <rc><c>Se</c><c>   3</c></rc>
    <rc><c>Se</c><c>   3</c></rc>
    <rc><c>Se</c><c>   3</c></rc>
    <rc><c>Se</c><c>   3</c></rc>
    <rc><c>Se</c><c>   3</c></rc>
    <rc><c>Se</c><c>   3</c></rc>
    <rc><c>Se</c><c>   3</c></rc>
    <rc><c>Se</c><c>   3</c></rc>
    <rc><c>Se</c><c>   3</c></rc>
    <rc><c>Se</c><c>   3</c></rc>
    <rc><c>Se</c><c>   3</c></rc>
    <rc><c>Se</c><c>   3</c></rc>
    <rc><c>Se</c><c>   3</c></rc>
    <rc><c>Se</c><c>   3</c></rc>
    <rc><c>Se</c><c>   3</c></rc>
    <rc><c>Se</c><c>   3</c></rc>
    <rc><c>Se</c><c>   3</c></rc>
    <rc><c>Se</c><c>   3</c></rc>
    <rc><c>Se</c><c>   3</c></rc>
    <rc><c>Se</c><c>   3</c></rc>
    <rc><c>Se</c><c>   3</c></rc>
    <rc><c>Se</c><c>   3</c></rc>
    <rc><c>Se</c><c>   3</c></rc>
    <rc><c>Se</c><c>   3</c></rc>
    <rc><c>Se</c><c>   3</c></rc>
    <rc><c>Se</c><c>   3</c></rc>
    <rc><c>Se</c><c>   3</c></rc>
    <rc><c>Se</c><c>   3</c></rc>
    <rc><c>Se</c><c>   3</c></rc>
    <rc><c>Se</c><c>   3</c></rc>
    <rc><c>Se</c><c>   3</c></rc>
    <rc><c>Se</c><c>   3</c></rc>
    <rc><c>Se</c><c>   3</c></rc>
    <rc><c>Se</c><c>   3</c></rc>
    <rc><c>Se</c><c>   3</c></rc>
    <rc><c>Se</c><c>   3</c></rc>
    <rc><c>Se</c><c>   3</c></rc>
    <rc><c>Se</c><c>   3</c></rc>
    <rc><c>Se</c><c>   3</c></rc>
    <rc><c>Se</c><c>   3</c></rc>
    <rc><c>Se</c><c>   3</c></rc>
    <rc><c>Se</c><c>   3</c></rc>
    <rc><c>Se</c><c>   3</c></rc>
    <rc><c>Se</c><c>   3</c></rc>
    <rc><c>Se</c><c>   3</c></rc>
    <rc><c>Se</c><c>   3</c></rc>
    <rc><c>Se</c><c>   3</c></rc>
    <rc><c>Se</c><c>   3</c></rc>
    <rc><c>Se</c><c>   3</c></rc>
    <rc><c>Se</c><c>   3</c></rc>
    <rc><c>Se</c><c>   3</c></rc>
    <rc><c>Se</c><c>   3</c></rc>
    <rc><c>Se</c><c>   3</c></rc>
    <rc><c>Se</c><c>   3</c></rc>
    <rc><c>Se</c><c>   3</c></rc>
    <rc><c>Se</c><c>   3</c></rc>
    <rc><c>Se</c><c>   3</c></rc>
    <rc><c>Se</c><c>   3</c></rc>
    <rc><c>Se</c><c>   3</c></rc>
    <rc><c>Se</c><c>   3</c></rc>
    <rc><c>Se</c><c>   3</c></rc>
    <rc><c>Se</c><c>   3</c></rc>
    <rc><c>Se</c><c>   3</c></rc>
    <rc><c>Se</c><c>   3</c></rc>
   </set>
  </array>
  <array name="atomtypes" >
   <dimension dim="1">type</dimension>
   <field type="int">atomspertype</field>
   <field type="string">element</field>
   <field>mass</field>
   <field>valence</field>
   <field type="string">pseudopotential</field>
   <set>
    <rc><c>  32</c><c>Cu</c><c>     63.54600000</c><c>     11.00000000</c><c> PAW_PBE Cu 05Jan2001                   </c></rc>
    <rc><c>  32</c><c>In</c><c>    114.82000000</c><c>     13.00000000</c><c> PAW_PBE In_d 06Sep2000                 </c></rc>
    <rc><c>  64</c><c>Se</c><c>     78.96000000</c><c>      6.00000000</c><c> PAW_PBE Se 06Sep2000                   </c></rc>
   </set>
  </array>
 </atominfo>
 <structure name="initialpos" >
  <crystal>
   <varray name="basis" >
    <v>      11.56480026       0.00000000       0.00000000 </v>
    <v>       0.00000000      11.56480026       0.00000000 </v>
    <v>       0.00000000       0.00000000      23.23839951 </v>
   </varray>
   <i name="volume">   3108.01056530 </i>
   <varray name="rec_basis" >
    <v>       0.08646928       0.00000000       0.00000000 </v>
    <v>       0.00000000       0.08646928       0.00000000 </v>
    <v>       0.00000000       0.00000000       0.04303222 </v>
   </varray>
  </crystal>
  <varray name="positions" >
   <v>       0.00000000       0.25000000       0.12500000 </v>
   <v>       0.00000000       0.25000000       0.62500000 </v>
   <v>       0.00000000       0.75000000       0.12500000 </v>
   <v>       0.00000000       0.75000000       0.62500000 </v>
   <v>       0.50000000       0.25000000       0.12500000 </v>
   <v>       0.50000000       0.25000000       0.62500000 </v>
   <v>       0.50000000       0.75000000       0.12500000 </v>
   <v>       0.50000000       0.75000000       0.62500000 </v>
   <v>       0.00000000       0.00000000       0.00000000 </v>
   <v>       0.00000000       0.00000000       0.50000000 </v>
   <v>       0.00000000       0.50000000       0.00000000 </v>
   <v>       0.00000000       0.50000000       0.50000000 </v>
   <v>       0.50000000       0.00000000       0.00000000 </v>
   <v>       0.50000000       0.00000000       0.50000000 </v>
   <v>       0.50000000       0.50000000       0.00000000 </v>
   <v>       0.50000000       0.50000000       0.50000000 </v>
   <v>       0.25000000       0.00000000       0.37500000 </v>
   <v>       0.25000000       0.00000000       0.87500000 </v>
   <v>       0.25000000       0.50000000       0.37500000 </v>
   <v>       0.25000000       0.50000000       0.87500000 </v>
   <v>       0.75000000       0.00000000       0.37500000 </v>
   <v>       0.75000000       0.00000000       0.87500000 </v>
   <v>       0.75000000       0.50000000       0.37500000 </v>
   <v>       0.75000000       0.50000000       0.87500000 </v>
   <v>       0.25000000       0.25000000       0.25000000 </v>
   <v>       0.25000000       0.25000000       0.75000000 </v>
   <v>       0.25000000       0.75000000       0.25000000 </v>
   <v>       0.25000000       0.75000000       0.75000000 </v>
   <v>       0.75000000       0.25000000       0.25000000 </v>
   <v>       0.75000000       0.25000000       0.75000000 </v>
   <v>       0.75000000       0.75000000       0.25000000 </v>
   <v>       0.75000000       0.75000000       0.75000000 </v>
   <v>       0.00000000       0.25000000       0.37500000 </v>
   <v>       0.00000000       0.25000000       0.87500000 </v>
   <v>       0.00000000       0.75000000       0.37500000 </v>
   <v>       0.00000000       0.75000000       0.87500000 </v>
   <v>       0.50000000       0.25000000       0.37500000 </v>
   <v>       0.50000000       0.25000000       0.87500000 </v>
   <v>       0.50000000       0.75000000       0.37500000 </v>
   <v>       0.50000000       0.75000000       0.87500000 </v>
   <v>       0.00000000       0.00000000       0.25000000 </v>
   <v>       0.00000000       0.00000000       0.75000000 </v>
   <v>       0.00000000       0.50000000       0.25000000 </v>
   <v>       0.00000000       0.50000000       0.75000000 </v>
   <v>       0.50000000       0.00000000       0.25000000 </v>
   <v>       0.50000000       0.00000000       0.75000000 </v>
   <v>       0.50000000       0.50000000       0.25000000 </v>
   <v>       0.50000000       0.50000000       0.75000000 </v>
   <v>       0.25000000       0.00000000       0.12500000 </v>
   <v>       0.25000000       0.00000000       0.62500000 </v>
   <v>       0.25000000       0.50000000       0.12500000 </v>
   <v>       0.25000000       0.50000000       0.62500000 </v>
   <v>       0.75000000       0.00000000       0.12500000 </v>
   <v>       0.75000000       0.00000000       0.62500000 </v>
   <v>       0.75000000       0.50000000       0.12500000 </v>
   <v>       0.75000000       0.50000000       0.62500000 </v>
   <v>       0.25000000       0.25000000       0.00000000 </v>
   <v>       0.25000000       0.25000000       0.50000000 </v>
   <v>       0.25000000       0.75000000       0.00000000 </v>
   <v>       0.25000000       0.75000000       0.50000000 </v>
   <v>       0.75000000       0.25000000       0.00000000 </v>
   <v>       0.75000000       0.25000000       0.50000000 </v>
   <v>       0.75000000       0.75000000       0.00000000 </v>
   <v>       0.75000000       0.75000000       0.50000000 </v>
   <v>       0.37500000       0.13249999       0.18750000 </v>
   <v>       0.37500000       0.13249999       0.68750000 </v>
   <v>       0.37500000       0.63249999       0.18750000 </v>
   <v>       0.37500000       0.63249999       0.68750000 </v>
   <v>       0.87500000       0.13249999       0.18750000 </v>
   <v>       0.87500000       0.13249999       0.68750000 </v>
   <v>       0.87500000       0.63249999       0.18750000 </v>
   <v>       0.87500000       0.63249999       0.68750000 </v>
   <v>       0.12500000       0.38249999       0.43750000 </v>
   <v>       0.12500000       0.38249999       0.93750000 </v>
   <v>       0.12500000       0.88249999       0.43750000 </v>
   <v>       0.12500000       0.88249999       0.93750000 </v>
   <v>       0.62500000       0.38249999       0.43750000 </v>
   <v>       0.62500000       0.38249999       0.93750000 </v>
   <v>       0.62500000       0.88249999       0.43750000 </v>
   <v>       0.62500000       0.88249999       0.93750000 </v>
   <v>       0.12500000       0.36750001       0.18750000 </v>
   <v>       0.12500000       0.36750001       0.68750000 </v>
   <v>       0.12500000       0.86750001       0.18750000 </v>
   <v>       0.12500000       0.86750001       0.68750000 </v>
   <v>       0.62500000       0.36750001       0.18750000 </v>
   <v>       0.62500000       0.36750001       0.68750000 </v>
   <v>       0.62500000       0.86750001       0.18750000 </v>
   <v>       0.62500000       0.86750001       0.68750000 </v>
   <v>       0.37500000       0.11750000       0.43750000 </v>
   <v>       0.37500000       0.11750000       0.93750000 </v>
   <v>       0.37500000       0.61750001       0.43750000 </v>
   <v>       0.37500000       0.61750001       0.93750000 </v>
   <v>       0.87500000       0.11750000       0.43750000 </v>
   <v>       0.87500000       0.11750000       0.93750000 </v>
   <v>       0.87500000       0.61750001       0.43750000 </v>
   <v>       0.87500000       0.61750001       0.93750000 </v>
   <v>       0.11750000       0.12500000       0.06250000 </v>
   <v>       0.11750000       0.12500000       0.56250000 </v>
   <v>       0.11750000       0.62500000       0.06250000 </v>
   <v>       0.11750000       0.62500000       0.56250000 </v>
   <v>       0.61750001       0.12500000       0.06250000 </v>
   <v>       0.61750001       0.12500000       0.56250000 </v>
   <v>       0.61750001       0.62500000       0.06250000 </v>
   <v>       0.61750001       0.62500000       0.56250000 </v>
   <v>       0.38249999       0.37500000       0.06250000 </v>
   <v>       0.38249999       0.37500000       0.56250000 </v>
   <v>       0.38249999       0.87500000       0.06250000 </v>
   <v>       0.38249999       0.87500000       0.56250000 </v>
   <v>       0.88249999       0.37500000       0.06250000 </v>
   <v>       0.88249999       0.37500000       0.56250000 </v>
   <v>       0.88249999       0.87500000       0.06250000 </v>
   <v>       0.88249999       0.87500000       0.56250000 </v>
   <v>       0.36750001       0.37500000       0.31250000 </v>
   <v>       0.36750001       0.37500000       0.81250000 </v>
   <v>       0.36750001       0.87500000       0.31250000 </v>
   <v>       0.36750001       0.87500000       0.81250000 </v>
   <v>       0.86750001       0.37500000       0.31250000 </v>
   <v>       0.86750001       0.37500000       0.81250000 </v>
   <v>       0.86750001       0.87500000       0.31250000 </v>
   <v>       0.86750001       0.87500000       0.81250000 </v>
   <v>       0.13249999       0.12500000       0.31250000 </v>
   <v>       0.13249999       0.12500000       0.81250000 </v>
   <v>       0.13249999       0.62500000       0.31250000 </v>
   <v>       0.13249999       0.62500000       0.81250000 </v>
   <v>       0.63249999       0.12500000       0.31250000 </v>
   <v>       0.63249999       0.12500000       0.81250000 </v>
   <v>       0.63249999       0.62500000       0.31250000 </v>
   <v>       0.63249999       0.62500000       0.81250000 </v>
  </varray>
 </structure>
 <calculation>
  <scstep>
   <time name="dav">   21.31   21.52</time>
   <time name="total">   21.55   21.75</time>
   <energy>
    <i name="alphaZ">   3590.49188669 </i>
    <i name="ewald"> -75122.05347602 </i>
    <i name="hartreedc"> -36129.95408452 </i>
    <i name="XCdc">   2689.61918491 </i>
    <i name="pawpsdc">  80361.77678867 </i>
    <i name="pawaedc">-162278.69869501 </i>
    <i name="eentropy">     -0.00182518 </i>
    <i name="bandstr">   8768.16760845 </i>
    <i name="atom"> 111100.60618623 </i>
    <i name="e_fr_energy"> -67020.04642578 </i>
    <i name="e_wo_entrp"> -67020.04460060 </i>
    <i name="e_0_energy"> -67020.04551319 </i>
   </energy>
  </scstep>
  <scstep>
   <time name="dav">    8.81    8.85</time>
   <time name="total">    8.82    8.85</time>
   <energy>
    <i name="e_fr_energy"> -78972.86256283 </i>
    <i name="e_wo_entrp"> -78972.86061427 </i>
    <i name="e_0_energy"> -78972.86158855 </i>
   </energy>
  </scstep>
  <scstep>
   <time name="dav">    9.13    9.22</time>
   <time name="total">    9.13    9.22</time>
   <energy>
    <i name="e_fr_energy"> -81807.67361278 </i>
    <i name="e_wo_entrp"> -81807.67361278 </i>
    <i name="e_0_energy"> -81807.67361278 </i>
   </energy>
  </scstep>
  <scstep>
   <time name="dav">   10.11   10.15</time>
   <time name="total">   10.11   10.15</time>
   <energy>
    <i name="e_fr_energy"> -82172.57422604 </i>
    <i name="e_wo_entrp"> -82172.57422604 </i>
    <i name="e_0_energy"> -82172.57422604 </i>
   </energy>
  </scstep>
  <scstep>
   <time name="dav">   97.51   98.12</time>
   <time name="total">  110.64  111.29</time>
   <energy>
    <i name="e_fr_energy">   -673.71445512 </i>
    <i name="e_wo_entrp">   -673.71445512 </i>
    <i name="e_0_energy">   -673.71445512 </i>
   </energy>
  </scstep>
  <scstep>
   <time name="dav">   98.24   98.84</time>
   <time name="total">  111.47  112.13</time>
   <energy>
    <i name="e_fr_energy">   -668.73677530 </i>
    <i name="e_wo_entrp">   -668.73677530 </i>
    <i name="e_0_energy">   -668.73677530 </i>
   </energy>
  </scstep>
  <scstep>
   <time name="dav">   98.22   98.91</time>
   <time name="total">  111.30  112.13</time>
   <energy>
    <i name="e_fr_energy">   -666.01446470 </i>
    <i name="e_wo_entrp">   -666.01446470 </i>
    <i name="e_0_energy">   -666.01446470 </i>
   </energy>
  </scstep>
  <scstep>
   <time name="dav">   96.39   97.10</time>
   <time name="total">  109.59  110.39</time>
   <energy>
    <i name="e_fr_energy">   -666.46481918 </i>
    <i name="e_wo_entrp">   -666.46481918 </i>
    <i name="e_0_energy">   -666.46481918 </i>
   </energy>
  </scstep>
  <scstep>
   <time name="dav">   96.84   97.52</time>
   <time name="total">  110.11  110.83</time>
   <energy>
    <i name="e_fr_energy">   -666.41709309 </i>
    <i name="e_wo_entrp">   -666.41709309 </i>
    <i name="e_0_energy">   -666.41709309 </i>
   </energy>
  </scstep>
  <scstep>
   <time name="dav">   97.47   98.15</time>
   <time name="total">  110.65  111.46</time>
   <energy>
    <i name="e_fr_energy">   -666.36132081 </i>
    <i name="e_wo_entrp">   -666.36132081 </i>
    <i name="e_0_energy">   -666.36132081 </i>
   </energy>
  </scstep>
  <scstep>
   <time name="dav">   97.22   97.89</time>
   <time name="total">  110.37  111.16</time>
   <energy>
    <i name="e_fr_energy">   -666.35232070 </i>
    <i name="e_wo_entrp">   -666.35232070 </i>
    <i name="e_0_energy">   -666.35232070 </i>
   </energy>
  </scstep>
  <scstep>
   <time name="dav">   96.63   97.40</time>
   <time name="total">  109.87  110.68</time>
   <energy>
    <i name="e_fr_energy">   -666.35315769 </i>
    <i name="e_wo_entrp">   -666.35315769 </i>
    <i name="e_0_energy">   -666.35315769 </i>
   </energy>
  </scstep>
  <scstep>
   <time name="dav">   96.81   97.50</time>
   <time name="total">  110.00  110.73</time>
   <energy>
    <i name="e_fr_energy">   -666.35444913 </i>
    <i name="e_wo_entrp">   -666.35444913 </i>
    <i name="e_0_energy">   -666.35444913 </i>
   </energy>
  </scstep>
  <scstep>
   <time name="dav">   96.60   97.22</time>
   <time name="total">  109.76  110.52</time>
   <energy>
    <i name="e_fr_energy">   -666.35548185 </i>
    <i name="e_wo_entrp">   -666.35548185 </i>
    <i name="e_0_energy">   -666.35548185 </i>
   </energy>
  </scstep>
  <scstep>
   <time name="dav">   95.78   96.55</time>
   <time name="total">  109.12  109.93</time>
   <energy>
    <i name="e_fr_energy">   -666.35620179 </i>
    <i name="e_wo_entrp">   -666.35620179 </i>
    <i name="e_0_energy">   -666.35620179 </i>
   </energy>
  </scstep>
  <scstep>
   <time name="dav">   95.03   95.66</time>
   <time name="total">  108.34  109.00</time>
   <energy>
    <i name="e_fr_energy">   -666.35663607 </i>
    <i name="e_wo_entrp">   -666.35663607 </i>
    <i name="e_0_energy">   -666.35663607 </i>
   </energy>
  </scstep>
  <scstep>
   <time name="dav">   94.99   95.66</time>
   <time name="total">  108.15  108.95</time>
   <energy>
    <i name="e_fr_energy">   -666.35687720 </i>
    <i name="e_wo_entrp">   -666.35687720 </i>
    <i name="e_0_energy">   -666.35687720 </i>
   </energy>
  </scstep>
  <scstep>
   <time name="dav">   94.54   95.27</time>
   <time name="total">  107.73  108.50</time>
   <energy>
    <i name="e_fr_energy">   -666.35700527 </i>
    <i name="e_wo_entrp">   -666.35700527 </i>
    <i name="e_0_energy">   -666.35700527 </i>
   </energy>
  </scstep>
  <scstep>
   <time name="dav">   94.45   95.13</time>
   <time name="total">  107.60  108.37</time>
   <energy>
    <i name="e_fr_energy">   -666.35707289 </i>
    <i name="e_wo_entrp">   -666.35707289 </i>
    <i name="e_0_energy">   -666.35707289 </i>
   </energy>
  </scstep>
  <scstep>
   <time name="dav">   92.92   93.63</time>
   <time name="total">  106.01  106.81</time>
   <energy>
    <i name="e_fr_energy">   -666.35710776 </i>
    <i name="e_wo_entrp">   -666.35710776 </i>
    <i name="e_0_energy">   -666.35710776 </i>
   </energy>
  </scstep>
  <scstep>
   <time name="dav">   92.49   93.16</time>
   <time name="total">  105.76  106.48</time>
   <energy>
    <i name="e_fr_energy">   -666.35712576 </i>
    <i name="e_wo_entrp">   -666.35712576 </i>
    <i name="e_0_energy">   -666.35712576 </i>
   </energy>
  </scstep>
  <scstep>
   <time name="dav">   92.33   93.00</time>
   <time name="total">  104.78  105.59</time>
   <energy>
    <i name="alphaZ">   3590.49188669 </i>
    <i name="ewald"> -75122.05347602 </i>
    <i name="hartreedc"> -35966.93956888 </i>
    <i name="XCdc">   2011.47598610 </i>
    <i name="pawpsdc">  84112.96287428 </i>
    <i name="pawaedc"> -87353.56365823 </i>
    <i name="eentropy">     -0.00000000 </i>
    <i name="bandstr">  -5613.49567625 </i>
    <i name="atom"> 111100.60618623 </i>
    <i name="e_fr_energy">   -666.35713525 </i>
    <i name="e_wo_entrp">   -666.35713525 </i>
    <i name="e_0_energy">   -666.35713525 </i>
   </energy>
  </scstep>
  <structure>
   <crystal>
    <varray name="basis" >
     <v>      11.56480026       0.00000000       0.00000000 </v>
     <v>       0.00000000      11.56480026       0.00000000 </v>
     <v>       0.00000000       0.00000000      23.23839951 </v>
    </varray>
    <i name="volume">   3108.01056530 </i>
    <varray name="rec_basis" >
     <v>       0.08646928       0.00000000       0.00000000 </v>
     <v>       0.00000000       0.08646928       0.00000000 </v>
     <v>       0.00000000       0.00000000       0.04303222 </v>
    </varray>
   </crystal>
   <varray name="positions" >
    <v>       0.00000000       0.25000000       0.12500000 </v>
    <v>       0.00000000       0.25000000       0.62500000 </v>
    <v>       0.00000000       0.75000000       0.12500000 </v>
    <v>       0.00000000       0.75000000       0.62500000 </v>
    <v>       0.50000000       0.25000000       0.12500000 </v>
    <v>       0.50000000       0.25000000       0.62500000 </v>
    <v>       0.50000000       0.75000000       0.12500000 </v>
    <v>       0.50000000       0.75000000       0.62500000 </v>
    <v>       0.00000000       0.00000000       0.00000000 </v>
    <v>       0.00000000       0.00000000       0.50000000 </v>
    <v>       0.00000000       0.50000000       0.00000000 </v>
    <v>       0.00000000       0.50000000       0.50000000 </v>
    <v>       0.50000000       0.00000000       0.00000000 </v>
    <v>       0.50000000       0.00000000       0.50000000 </v>
    <v>       0.50000000       0.50000000       0.00000000 </v>
    <v>       0.50000000       0.50000000       0.50000000 </v>
    <v>       0.25000000       0.00000000       0.37500000 </v>
    <v>       0.25000000       0.00000000       0.87500000 </v>
    <v>       0.25000000       0.50000000       0.37500000 </v>
    <v>       0.25000000       0.50000000       0.87500000 </v>
    <v>       0.75000000       0.00000000       0.37500000 </v>
    <v>       0.75000000       0.00000000       0.87500000 </v>
    <v>       0.75000000       0.50000000       0.37500000 </v>
    <v>       0.75000000       0.50000000       0.87500000 </v>
    <v>       0.25000000       0.25000000       0.25000000 </v>
    <v>       0.25000000       0.25000000       0.75000000 </v>
    <v>       0.25000000       0.75000000       0.25000000 </v>
    <v>       0.25000000       0.75000000       0.75000000 </v>
    <v>       0.75000000       0.25000000       0.25000000 </v>
    <v>       0.75000000       0.25000000       0.75000000 </v>
    <v>       0.75000000       0.75000000       0.25000000 </v>
    <v>       0.75000000       0.75000000       0.75000000 </v>
    <v>       0.00000000       0.25000000       0.37500000 </v>
    <v>       0.00000000       0.25000000       0.87500000 </v>
    <v>       0.00000000       0.75000000       0.37500000 </v>
    <v>       0.00000000       0.75000000       0.87500000 </v>
    <v>       0.50000000       0.25000000       0.37500000 </v>
    <v>       0.50000000       0.25000000       0.87500000 </v>
    <v>       0.50000000       0.75000000       0.37500000 </v>
    <v>       0.50000000       0.75000000       0.87500000 </v>
    <v>       0.00000000       0.00000000       0.25000000 </v>
    <v>       0.00000000       0.00000000       0.75000000 </v>
    <v>       0.00000000       0.50000000       0.25000000 </v>
    <v>       0.00000000       0.50000000       0.75000000 </v>
    <v>       0.50000000       0.00000000       0.25000000 </v>
    <v>       0.50000000       0.00000000       0.75000000 </v>
    <v>       0.50000000       0.50000000       0.25000000 </v>
    <v>       0.50000000       0.50000000       0.75000000 </v>
    <v>       0.25000000       0.00000000       0.12500000 </v>
    <v>       0.25000000       0.00000000       0.62500000 </v>
    <v>       0.25000000       0.50000000       0.12500000 </v>
    <v>       0.25000000       0.50000000       0.62500000 </v>
    <v>       0.75000000       0.00000000       0.12500000 </v>
    <v>       0.75000000       0.00000000       0.62500000 </v>
    <v>       0.75000000       0.50000000       0.12500000 </v>
    <v>       0.75000000       0.50000000       0.62500000 </v>
    <v>       0.25000000       0.25000000       0.00000000 </v>
    <v>       0.25000000       0.25000000       0.50000000 </v>
    <v>       0.25000000       0.75000000       0.00000000 </v>
    <v>       0.25000000       0.75000000       0.50000000 </v>
    <v>       0.75000000       0.25000000       0.00000000 </v>
    <v>       0.75000000       0.25000000       0.50000000 </v>
    <v>       0.75000000       0.75000000       0.00000000 </v>
    <v>       0.75000000       0.75000000       0.50000000 </v>
    <v>       0.37500000       0.13249999       0.18750000 </v>
    <v>       0.37500000       0.13249999       0.68750000 </v>
    <v>       0.37500000       0.63249999       0.18750000 </v>
    <v>       0.37500000       0.63249999       0.68750000 </v>
    <v>       0.87500000       0.13249999       0.18750000 </v>
    <v>       0.87500000       0.13249999       0.68750000 </v>
    <v>       0.87500000       0.63249999       0.18750000 </v>
    <v>       0.87500000       0.63249999       0.68750000 </v>
    <v>       0.12500000       0.38249999       0.43750000 </v>
    <v>       0.12500000       0.38249999       0.93750000 </v>
    <v>       0.12500000       0.88249999       0.43750000 </v>
    <v>       0.12500000       0.88249999       0.93750000 </v>
    <v>       0.62500000       0.38249999       0.43750000 </v>
    <v>       0.62500000       0.38249999       0.93750000 </v>
    <v>       0.62500000       0.88249999       0.43750000 </v>
    <v>       0.62500000       0.88249999       0.93750000 </v>
    <v>       0.12500000       0.36750001       0.18750000 </v>
    <v>       0.12500000       0.36750001       0.68750000 </v>
    <v>       0.12500000       0.86750001       0.18750000 </v>
    <v>       0.12500000       0.86750001       0.68750000 </v>
    <v>       0.62500000       0.36750001       0.18750000 </v>
    <v>       0.62500000       0.36750001       0.68750000 </v>
    <v>       0.62500000       0.86750001       0.18750000 </v>
    <v>       0.62500000       0.86750001       0.68750000 </v>
    <v>       0.37500000       0.11750000       0.43750000 </v>
    <v>       0.37500000       0.11750000       0.93750000 </v>
    <v>       0.37500000       0.61750001       0.43750000 </v>
    <v>       0.37500000       0.61750001       0.93750000 </v>
    <v>       0.87500000       0.11750000       0.43750000 </v>
    <v>       0.87500000       0.11750000       0.93750000 </v>
    <v>       0.87500000       0.61750001       0.43750000 </v>
    <v>       0.87500000       0.61750001       0.93750000 </v>
    <v>       0.11750000       0.12500000       0.06250000 </v>
    <v>       0.11750000       0.12500000       0.56250000 </v>
    <v>       0.11750000       0.62500000       0.06250000 </v>
    <v>       0.11750000       0.62500000       0.56250000 </v>
    <v>       0.61750001       0.12500000       0.06250000 </v>
    <v>       0.61750001       0.12500000       0.56250000 </v>
    <v>       0.61750001       0.62500000       0.06250000 </v>
    <v>       0.61750001       0.62500000       0.56250000 </v>
    <v>       0.38249999       0.37500000       0.06250000 </v>
    <v>       0.38249999       0.37500000       0.56250000 </v>
    <v>       0.38249999       0.87500000       0.06250000 </v>
    <v>       0.38249999       0.87500000       0.56250000 </v>
    <v>       0.88249999       0.37500000       0.06250000 </v>
    <v>       0.88249999       0.37500000       0.56250000 </v>
    <v>       0.88249999       0.87500000       0.06250000 </v>
    <v>       0.88249999       0.87500000       0.56250000 </v>
    <v>       0.36750001       0.37500000       0.31250000 </v>
    <v>       0.36750001       0.37500000       0.81250000 </v>
    <v>       0.36750001       0.87500000       0.31250000 </v>
    <v>       0.36750001       0.87500000       0.81250000 </v>
    <v>       0.86750001       0.37500000       0.31250000 </v>
    <v>       0.86750001       0.37500000       0.81250000 </v>
    <v>       0.86750001       0.87500000       0.31250000 </v>
    <v>       0.86750001       0.87500000       0.81250000 </v>
    <v>       0.13249999       0.12500000       0.31250000 </v>
    <v>       0.13249999       0.12500000       0.81250000 </v>
    <v>       0.13249999       0.62500000       0.31250000 </v>
    <v>       0.13249999       0.62500000       0.81250000 </v>
    <v>       0.63249999       0.12500000       0.31250000 </v>
    <v>       0.63249999       0.12500000       0.81250000 </v>
    <v>       0.63249999       0.62500000       0.31250000 </v>
    <v>       0.63249999       0.62500000       0.81250000 </v>
   </varray>
  </structure>
  <varray name="forces" >
   <v>      -0.00000000      -0.00000000       0.00000000 </v>
   <v>      -0.00000000      -0.00000000      -0.00000000 </v>
   <v>      -0.00000000      -0.00000000       0.00000000 </v>
   <v>      -0.00000000      -0.00000000       0.00000000 </v>
   <v>      -0.00000000      -0.00000000      -0.00000000 </v>
   <v>      -0.00000000      -0.00000000       0.00000000 </v>
   <v>      -0.00000000      -0.00000000      -0.00000000 </v>
   <v>      -0.00000000      -0.00000000      -0.00000000 </v>
   <v>      -0.00000000      -0.00000000      -0.00000000 </v>
   <v>      -0.00000000      -0.00000000      -0.00000000 </v>
   <v>      -0.00000000      -0.00000000      -0.00000000 </v>
   <v>      -0.00000000      -0.00000000       0.00000000 </v>
   <v>      -0.00000000      -0.00000000      -0.00000000 </v>
   <v>      -0.00000000      -0.00000000       0.00000000 </v>
   <v>      -0.00000000      -0.00000000      -0.00000000 </v>
   <v>      -0.00000000      -0.00000000      -0.00000000 </v>
   <v>      -0.00000000      -0.00000000       0.00000000 </v>
   <v>      -0.00000000      -0.00000000       0.00000000 </v>
   <v>      -0.00000000      -0.00000000      -0.00000000 </v>
   <v>      -0.00000000      -0.00000000      -0.00000000 </v>
   <v>      -0.00000000      -0.00000000       0.00000000 </v>
   <v>      -0.00000000      -0.00000000      -0.00000000 </v>
   <v>      -0.00000000      -0.00000000       0.00000000 </v>
   <v>      -0.00000000      -0.00000000      -0.00000000 </v>
   <v>      -0.00000000      -0.00000000       0.00000000 </v>
   <v>      -0.00000000      -0.00000000      -0.00000000 </v>
   <v>      -0.00000000      -0.00000000      -0.00000000 </v>
   <v>      -0.00000000      -0.00000000       0.00000000 </v>
   <v>      -0.00000000      -0.00000000      -0.00000000 </v>
   <v>      -0.00000000      -0.00000000       0.00000000 </v>
   <v>      -0.00000000      -0.00000000      -0.00000000 </v>
   <v>      -0.00000000      -0.00000000       0.00000000 </v>
   <v>      -0.00000000      -0.00000000       0.00000000 </v>
   <v>      -0.00000000      -0.00000000      -0.00000000 </v>
   <v>      -0.00000000      -0.00000000      -0.00000000 </v>
   <v>      -0.00000000      -0.00000000       0.00000000 </v>
   <v>      -0.00000000      -0.00000000      -0.00000000 </v>
   <v>      -0.00000000      -0.00000000       0.00000000 </v>
   <v>      -0.00000000      -0.00000000      -0.00000000 </v>
   <v>      -0.00000000      -0.00000000       0.00000000 </v>
   <v>      -0.00000000      -0.00000000       0.00000000 </v>
   <v>      -0.00000000      -0.00000000      -0.00000000 </v>
   <v>      -0.00000000      -0.00000000      -0.00000000 </v>
   <v>      -0.00000000      -0.00000000       0.00000000 </v>
   <v>      -0.00000000      -0.00000000      -0.00000000 </v>
   <v>      -0.00000000      -0.00000000       0.00000000 </v>
   <v>      -0.00000000      -0.00000000       0.00000000 </v>
   <v>      -0.00000000      -0.00000000      -0.00000000 </v>
   <v>      -0.00000000      -0.00000000       0.00000000 </v>
   <v>      -0.00000000      -0.00000000       0.00000000 </v>
   <v>      -0.00000000      -0.00000000       0.00000000 </v>
   <v>      -0.00000000      -0.00000000       0.00000000 </v>
   <v>      -0.00000000      -0.00000000      -0.00000000 </v>
   <v>      -0.00000000      -0.00000000      -0.00000000 </v>
   <v>      -0.00000000      -0.00000000       0.00000000 </v>
   <v>      -0.00000000      -0.00000000       0.00000000 </v>
   <v>      -0.00000000      -0.00000000       0.00000000 </v>
   <v>      -0.00000000      -0.00000000      -0.00000000 </v>
   <v>      -0.00000000      -0.00000000       0.00000000 </v>
   <v>      -0.00000000      -0.00000000      -0.00000000 </v>
   <v>      -0.00000000      -0.00000000       0.00000000 </v>
   <v>      -0.00000000      -0.00000000      -0.00000000 </v>
   <v>      -0.00000000      -0.00000000      -0.00000000 </v>
   <v>      -0.00000000      -0.00000000      -0.00000000 </v>
   <v>      -0.00000000       0.51393008      -0.00000000 </v>
   <v>      -0.00000000       0.51393008       0.00000000 </v>
   <v>      -0.00000000       0.51393008       0.00000000 </v>
   <v>      -0.00000000       0.51393008      -0.00000000 </v>
   <v>      -0.00000000       0.51393008       0.00000000 </v>
   <v>      -0.00000000       0.51393008      -0.00000000 </v>
   <v>      -0.00000000       0.51393008      -0.00000000 </v>
   <v>      -0.00000000       0.51393008      -0.00000000 </v>
   <v>      -0.00000000       0.51393008       0.00000000 </v>
   <v>      -0.00000000       0.51393008       0.00000000 </v>
   <v>      -0.00000000       0.51393008      -0.00000000 </v>
   <v>      -0.00000000       0.51393008      -0.00000000 </v>
   <v>      -0.00000000       0.51393008       0.00000000 </v>
   <v>      -0.00000000       0.51393008       0.00000000 </v>
   <v>      -0.00000000       0.51393008       0.00000000 </v>
   <v>      -0.00000000       0.51393008      -0.00000000 </v>
   <v>      -0.00000000      -0.51393008       0.00000000 </v>
   <v>      -0.00000000      -0.51393008      -0.00000000 </v>
   <v>      -0.00000000      -0.51393008       0.00000000 </v>
   <v>      -0.00000000      -0.51393008      -0.00000000 </v>
   <v>      -0.00000000      -0.51393008       0.00000000 </v>
   <v>      -0.00000000      -0.51393008       0.00000000 </v>
   <v>      -0.00000000      -0.51393008      -0.00000000 </v>
   <v>      -0.00000000      -0.51393008      -0.00000000 </v>
   <v>      -0.00000000      -0.51393008       0.00000000 </v>
   <v>      -0.00000000      -0.51393008      -0.00000000 </v>
   <v>      -0.00000000      -0.51393008       0.00000000 </v>
   <v>      -0.00000000      -0.51393008      -0.00000000 </v>
   <v>      -0.00000000      -0.51393008      -0.00000000 </v>
   <v>      -0.00000000      -0.51393008       0.00000000 </v>
   <v>      -0.00000000      -0.51393008      -0.00000000 </v>
   <v>      -0.00000000      -0.51393008      -0.00000000 </v>
   <v>      -0.51393008      -0.00000000       0.00000000 </v>
   <v>      -0.51393008      -0.00000000      -0.00000000 </v>
   <v>      -0.51393008      -0.00000000      -0.00000000 </v>
   <v>      -0.51393008      -0.00000000      -0.00000000 </v>
   <v>      -0.51393008      -0.00000000       0.00000000 </v>
   <v>      -0.51393008      -0.00000000       0.00000000 </v>
   <v>      -0.51393008      -0.00000000      -0.00000000 </v>
   <v>      -0.51393008      -0.00000000      -0.00000000 </v>
   <v>       0.51393008      -0.00000000       0.00000000 </v>
   <v>       0.51393008      -0.00000000       0.00000000 </v>
   <v>       0.51393008      -0.00000000       0.00000000 </v>
   <v>       0.51393008      -0.00000000       0.00000000 </v>
   <v>       0.51393008      -0.00000000       0.00000000 </v>
   <v>       0.51393008      -0.00000000      -0.00000000 </v>
   <v>       0.51393008      -0.00000000       0.00000000 </v>
   <v>       0.51393008      -0.00000000      -0.00000000 </v>
   <v>      -0.51393008      -0.00000000       0.00000000 </v>
   <v>      -0.51393008      -0.00000000      -0.00000000 </v>
   <v>      -0.51393008      -0.00000000      -0.00000000 </v>
   <v>      -0.51393008      -0.00000000       0.00000000 </v>
   <v>      -0.51393008      -0.00000000      -0.00000000 </v>
   <v>      -0.51393008      -0.00000000      -0.00000000 </v>
   <v>      -0.51393008      -0.00000000      -0.00000000 </v>
   <v>      -0.51393008      -0.00000000       0.00000000 </v>
   <v>       0.51393008      -0.00000000       0.00000000 </v>
   <v>       0.51393008      -0.00000000       0.00000000 </v>
   <v>       0.51393008      -0.00000000       0.00000000 </v>
   <v>       0.51393008      -0.00000000       0.00000000 </v>
   <v>       0.51393008      -0.00000000      -0.00000000 </v>
   <v>       0.51393008      -0.00000000       0.00000000 </v>
   <v>       0.51393008      -0.00000000       0.00000000 </v>
   <v>       0.51393008      -0.00000000      -0.00000000 </v>
  </varray>
  <energy>
   <i name="e_fr_energy">   -666.35713525 </i>
   <i name="e_wo_entrp">   -666.35713525 </i>
   <i name="e_0_energy">   -666.35713525 </i>
  </energy>
  <time name="totalsc"> 2170.03 2185.44</time>
  <eigenvalues>
   <array>
    <dimension dim="1">band</dimension>
    <dimension dim="2">kpoint</dimension>
    <dimension dim="3">spin</dimension>
    <field>eigene</field>
    <field>occ</field>
    <set>
     <set comment="spin 1">
      <set comment="kpoint 1">
       <r>  -13.6616    1.0000 </r>
       <r>  -13.6616    1.0000 </r>
       <r>  -13.6616    1.0000 </r>
       <r>  -13.6616    1.0000 </r>
       <r>  -13.6565    1.0000 </r>
       <r>  -13.6565    1.0000 </r>
       <r>  -13.6565    1.0000 </r>
       <r>  -13.6565    1.0000 </r>
       <r>  -13.6558    1.0000 </r>
       <r>  -13.6558    1.0000 </r>
       <r>  -13.6558    1.0000 </r>
       <r>  -13.6558    1.0000 </r>
       <r>  -13.6558    1.0000 </r>
       <r>  -13.6558    1.0000 </r>
       <r>  -13.6558    1.0000 </r>
       <r>  -13.6558    1.0000 </r>
       <r>  -13.6446    1.0000 </r>
       <r>  -13.6446    1.0000 </r>
       <r>  -13.6404    1.0000 </r>
       <r>  -13.6404    1.0000 </r>
       <r>  -13.6404    1.0000 </r>
       <r>  -13.6404    1.0000 </r>
       <r>  -13.6392    1.0000 </r>
       <r>  -13.6392    1.0000 </r>
       <r>  -13.6392    1.0000 </r>
       <r>  -13.6392    1.0000 </r>
       <r>  -13.6363    1.0000 </r>
       <r>  -13.6363    1.0000 </r>
       <r>  -13.6363    1.0000 </r>
       <r>  -13.6363    1.0000 </r>
       <r>  -13.6348    1.0000 </r>
       <r>  -13.6335    1.0000 </r>
       <r>  -13.6335    1.0000 </r>
       <r>  -13.6086    1.0000 </r>
       <r>  -13.6086    1.0000 </r>
       <r>  -13.5898    1.0000 </r>
       <r>  -13.5898    1.0000 </r>
       <r>  -13.5898    1.0000 </r>
       <r>  -13.5898    1.0000 </r>
       <r>  -13.5851    1.0000 </r>
       <r>  -13.5851    1.0000 </r>
       <r>  -13.5851    1.0000 </r>
       <r>  -13.5851    1.0000 </r>
       <r>  -13.5350    1.0000 </r>
       <r>  -13.5350    1.0000 </r>
       <r>  -13.5214    1.0000 </r>
       <r>  -13.5214    1.0000 </r>
       <r>  -13.5214    1.0000 </r>
       <r>  -13.5214    1.0000 </r>
       <r>  -13.5212    1.0000 </r>
       <r>  -13.5212    1.0000 </r>
       <r>  -13.5212    1.0000 </r>
       <r>  -13.5212    1.0000 </r>
       <r>  -13.4583    1.0000 </r>
       <r>  -13.4583    1.0000 </r>
       <r>  -13.4583    1.0000 </r>
       <r>  -13.4583    1.0000 </r>
       <r>  -13.4488    1.0000 </r>
       <r>  -13.4488    1.0000 </r>
       <r>  -13.4488    1.0000 </r>
       <r>  -13.4488    1.0000 </r>
       <r>  -13.4371    1.0000 </r>
       <r>  -13.4371    1.0000 </r>
       <r>  -13.3839    1.0000 </r>
       <r>  -13.3806    1.0000 </r>
       <r>  -13.3806    1.0000 </r>
       <r>  -13.3806    1.0000 </r>
       <r>  -13.3806    1.0000 </r>
       <r>  -13.3769    1.0000 </r>
       <r>  -13.3769    1.0000 </r>
       <r>  -13.3769    1.0000 </r>
       <r>  -13.3769    1.0000 </r>
       <r>  -13.3746    1.0000 </r>
       <r>  -13.3746    1.0000 </r>
       <r>  -13.3746    1.0000 </r>
       <r>  -13.3746    1.0000 </r>
       <r>  -13.3744    1.0000 </r>
       <r>  -13.3744    1.0000 </r>
       <r>  -13.3744    1.0000 </r>
       <r>  -13.3744    1.0000 </r>
       <r>  -13.3597    1.0000 </r>
       <r>  -13.3597    1.0000 </r>
       <r>  -13.3503    1.0000 </r>
       <r>  -13.3503    1.0000 </r>
       <r>  -13.3503    1.0000 </r>
       <r>  -13.3503    1.0000 </r>
       <r>  -13.3499    1.0000 </r>
       <r>  -13.3499    1.0000 </r>
       <r>  -13.3499    1.0000 </r>
       <r>  -13.3499    1.0000 </r>
       <r>  -13.3480    1.0000 </r>
       <r>  -13.3480    1.0000 </r>
       <r>  -13.3480    1.0000 </r>
       <r>  -13.3480    1.0000 </r>
       <r>  -13.3405    1.0000 </r>
       <r>  -13.3405    1.0000 </r>
       <r>  -13.2801    1.0000 </r>
       <r>  -13.2801    1.0000 </r>
       <r>  -13.2784    1.0000 </r>
       <r>  -13.2784    1.0000 </r>
       <r>  -13.2718    1.0000 </r>
       <r>  -13.2691    1.0000 </r>
       <r>  -13.2691    1.0000 </r>
       <r>  -13.2691    1.0000 </r>
       <r>  -13.2691    1.0000 </r>
       <r>  -13.2690    1.0000 </r>
       <r>  -13.2690    1.0000 </r>
       <r>  -13.2690    1.0000 </r>
       <r>  -13.2690    1.0000 </r>
       <r>  -13.2673    1.0000 </r>
       <r>  -13.2673    1.0000 </r>
       <r>  -13.2673    1.0000 </r>
       <r>  -13.2673    1.0000 </r>
       <r>  -13.2671    1.0000 </r>
       <r>  -13.2667    1.0000 </r>
       <r>  -13.2667    1.0000 </r>
       <r>  -13.2667    1.0000 </r>
       <r>  -13.2667    1.0000 </r>
       <r>  -13.2660    1.0000 </r>
       <r>  -13.2660    1.0000 </r>
       <r>  -13.2567    1.0000 </r>
       <r>  -13.2567    1.0000 </r>
       <r>  -13.2567    1.0000 </r>
       <r>  -13.2567    1.0000 </r>
       <r>  -13.2565    1.0000 </r>
       <r>  -13.2565    1.0000 </r>
       <r>  -13.2565    1.0000 </r>
       <r>  -13.2564    1.0000 </r>
       <r>  -13.2545    1.0000 </r>
       <r>  -13.2527    1.0000 </r>
       <r>  -13.2527    1.0000 </r>
       <r>  -13.2507    1.0000 </r>
       <r>  -13.2507    1.0000 </r>
       <r>  -13.2507    1.0000 </r>
       <r>  -13.2507    1.0000 </r>
       <r>  -13.2505    1.0000 </r>
       <r>  -13.2505    1.0000 </r>
       <r>  -13.2505    1.0000 </r>
       <r>  -13.2505    1.0000 </r>
       <r>  -13.2476    1.0000 </r>
       <r>  -13.2476    1.0000 </r>
       <r>  -13.2476    1.0000 </r>
       <r>  -13.2476    1.0000 </r>
       <r>  -13.2475    1.0000 </r>
       <r>  -13.2475    1.0000 </r>
       <r>  -13.2475    1.0000 </r>
       <r>  -13.2475    1.0000 </r>
       <r>  -13.2413    1.0000 </r>
       <r>  -13.2413    1.0000 </r>
       <r>  -13.2413    1.0000 </r>
       <r>  -13.2413    1.0000 </r>
       <r>  -13.2409    1.0000 </r>
       <r>  -13.2409    1.0000 </r>
       <r>  -13.2409    1.0000 </r>
       <r>  -13.2409    1.0000 </r>
       <r>  -13.2389    1.0000 </r>
       <r>  -13.2389    1.0000 </r>
       <r>  -13.2384    1.0000 </r>
       <r>  -13.2348    1.0000 </r>
       <r>  -13.2348    1.0000 </r>
       <r>  -11.9893    1.0000 </r>
       <r>  -11.7752    1.0000 </r>
       <r>  -11.7752    1.0000 </r>
       <r>  -11.3511    1.0000 </r>
       <r>  -11.3511    1.0000 </r>
       <r>  -11.3511    1.0000 </r>
       <r>  -11.3511    1.0000 </r>
       <r>  -11.3229    1.0000 </r>
       <r>  -11.3229    1.0000 </r>
       <r>  -11.3229    1.0000 </r>
       <r>  -11.3229    1.0000 </r>
       <r>  -11.2477    1.0000 </r>
       <r>  -11.2477    1.0000 </r>
       <r>  -10.9711    1.0000 </r>
       <r>  -10.9711    1.0000 </r>
       <r>  -10.9711    1.0000 </r>
       <r>  -10.9711    1.0000 </r>
       <r>  -10.9701    1.0000 </r>
       <r>  -10.9701    1.0000 </r>
       <r>  -10.9701    1.0000 </r>
       <r>  -10.9701    1.0000 </r>
       <r>  -10.9481    1.0000 </r>
       <r>  -10.9481    1.0000 </r>
       <r>  -10.9481    1.0000 </r>
       <r>  -10.9481    1.0000 </r>
       <r>  -10.8070    1.0000 </r>
       <r>  -10.8070    1.0000 </r>
       <r>  -10.8070    1.0000 </r>
       <r>  -10.8070    1.0000 </r>
       <r>  -10.7103    1.0000 </r>
       <r>  -10.7103    1.0000 </r>
       <r>  -10.7103    1.0000 </r>
       <r>  -10.7103    1.0000 </r>
       <r>  -10.6598    1.0000 </r>
       <r>  -10.6598    1.0000 </r>
       <r>  -10.6045    1.0000 </r>
       <r>  -10.6045    1.0000 </r>
       <r>  -10.6045    1.0000 </r>
       <r>  -10.6045    1.0000 </r>
       <r>  -10.6033    1.0000 </r>
       <r>  -10.6033    1.0000 </r>
       <r>  -10.6033    1.0000 </r>
       <r>  -10.6033    1.0000 </r>
       <r>  -10.5212    1.0000 </r>
       <r>  -10.5212    1.0000 </r>
       <r>  -10.5212    1.0000 </r>
       <r>  -10.5212    1.0000 </r>
       <r>  -10.4383    1.0000 </r>
       <r>  -10.4383    1.0000 </r>
       <r>  -10.4383    1.0000 </r>
       <r>  -10.4383    1.0000 </r>
       <r>  -10.3931    1.0000 </r>
       <r>  -10.3931    1.0000 </r>
       <r>  -10.3838    1.0000 </r>
       <r>  -10.3788    1.0000 </r>
       <r>  -10.3788    1.0000 </r>
       <r>  -10.3788    1.0000 </r>
       <r>  -10.3788    1.0000 </r>
       <r>  -10.3644    1.0000 </r>
       <r>  -10.3644    1.0000 </r>
       <r>  -10.3630    1.0000 </r>
       <r>  -10.3630    1.0000 </r>
       <r>  -10.3630    1.0000 </r>
       <r>  -10.3630    1.0000 </r>
       <r>   -3.9202    1.0000 </r>
       <r>   -3.7238    1.0000 </r>
       <r>   -3.7238    1.0000 </r>
       <r>   -3.5950    1.0000 </r>
       <r>   -3.5950    1.0000 </r>
       <r>   -3.5950    1.0000 </r>
       <r>   -3.5950    1.0000 </r>
       <r>   -3.5508    1.0000 </r>
       <r>   -3.5508    1.0000 </r>
       <r>   -3.5508    1.0000 </r>
       <r>   -3.5508    1.0000 </r>
       <r>   -3.4722    1.0000 </r>
       <r>   -3.4722    1.0000 </r>
       <r>   -3.4722    1.0000 </r>
       <r>   -3.4722    1.0000 </r>
       <r>   -3.4436    1.0000 </r>
       <r>   -3.4436    1.0000 </r>
       <r>   -3.4436    1.0000 </r>
       <r>   -3.4436    1.0000 </r>
       <r>   -3.3962    1.0000 </r>
       <r>   -3.3962    1.0000 </r>
       <r>   -3.0298    1.0000 </r>
       <r>   -3.0298    1.0000 </r>
       <r>   -2.9099    1.0000 </r>
       <r>   -2.9099    1.0000 </r>
       <r>   -2.9099    1.0000 </r>
       <r>   -2.9099    1.0000 </r>
       <r>   -2.8627    1.0000 </r>
       <r>   -2.8627    1.0000 </r>
       <r>   -2.8627    1.0000 </r>
       <r>   -2.8627    1.0000 </r>
       <r>   -2.7621    1.0000 </r>
       <r>   -2.2335    1.0000 </r>
       <r>   -2.2335    1.0000 </r>
       <r>   -2.2335    1.0000 </r>
       <r>   -2.2335    1.0000 </r>
       <r>   -2.0587    1.0000 </r>
       <r>   -2.0587    1.0000 </r>
       <r>   -2.0587    1.0000 </r>
       <r>   -2.0587    1.0000 </r>
       <r>   -1.7285    1.0000 </r>
       <r>   -1.7285    1.0000 </r>
       <r>   -1.7285    1.0000 </r>
       <r>   -1.7285    1.0000 </r>
       <r>   -1.6911    1.0000 </r>
       <r>   -1.6911    1.0000 </r>
       <r>   -1.6911    1.0000 </r>
       <r>   -1.6911    1.0000 </r>
       <r>   -1.6726    1.0000 </r>
       <r>   -1.6726    1.0000 </r>
       <r>   -1.6436    1.0000 </r>
       <r>   -1.3945    1.0000 </r>
       <r>   -1.3945    1.0000 </r>
       <r>   -1.3945    1.0000 </r>
       <r>   -1.3945    1.0000 </r>
       <r>   -1.3592    1.0000 </r>
       <r>   -1.3592    1.0000 </r>
       <r>   -1.3592    1.0000 </r>
       <r>   -1.3592    1.0000 </r>
       <r>   -1.2836    1.0000 </r>
       <r>   -1.2498    1.0000 </r>
       <r>   -1.2498    1.0000 </r>
       <r>   -1.2498    1.0000 </r>
       <r>   -1.2498    1.0000 </r>
       <r>   -1.2296    1.0000 </r>
       <r>   -1.2296    1.0000 </r>
       <r>   -1.2207    1.0000 </r>
       <r>   -1.2207    1.0000 </r>
       <r>   -1.2207    1.0000 </r>
       <r>   -1.2207    1.0000 </r>
       <r>   -1.2125    1.0000 </r>
       <r>   -0.9397    1.0000 </r>
       <r>   -0.9397    1.0000 </r>
       <r>   -0.9397    1.0000 </r>
       <r>   -0.9397    1.0000 </r>
       <r>   -0.9277    1.0000 </r>
       <r>   -0.9277    1.0000 </r>
       <r>   -0.8791    1.0000 </r>
       <r>   -0.8791    1.0000 </r>
       <r>   -0.8791    1.0000 </r>
       <r>   -0.8791    1.0000 </r>
       <r>   -0.8536    1.0000 </r>
       <r>   -0.8536    1.0000 </r>
       <r>   -0.8315    1.0000 </r>
       <r>   -0.8315    1.0000 </r>
       <r>   -0.8315    1.0000 </r>
       <r>   -0.8315    1.0000 </r>
       <r>   -0.8163    1.0000 </r>
       <r>   -0.8163    1.0000 </r>
       <r>   -0.8163    1.0000 </r>
       <r>   -0.8163    1.0000 </r>
       <r>   -0.7298    1.0000 </r>
       <r>   -0.7298    1.0000 </r>
       <r>   -0.6487    1.0000 </r>
       <r>   -0.6487    1.0000 </r>
       <r>   -0.6487    1.0000 </r>
       <r>   -0.6487    1.0000 </r>
       <r>   -0.6413    1.0000 </r>
       <r>   -0.6413    1.0000 </r>
       <r>   -0.6413    1.0000 </r>
       <r>   -0.6413    1.0000 </r>
       <r>   -0.6310    1.0000 </r>
       <r>   -0.6310    1.0000 </r>
       <r>   -0.6310    1.0000 </r>
       <r>   -0.6310    1.0000 </r>
       <r>   -0.5937    1.0000 </r>
       <r>   -0.5937    1.0000 </r>
       <r>   -0.5937    1.0000 </r>
       <r>   -0.5937    1.0000 </r>
       <r>   -0.5861    1.0000 </r>
       <r>   -0.5861    1.0000 </r>
       <r>   -0.4429    1.0000 </r>
       <r>   -0.4429    1.0000 </r>
       <r>   -0.4429    1.0000 </r>
       <r>   -0.4429    1.0000 </r>
       <r>   -0.4399    1.0000 </r>
       <r>   -0.4399    1.0000 </r>
       <r>   -0.4399    1.0000 </r>
       <r>   -0.4399    1.0000 </r>
       <r>   -0.4104    1.0000 </r>
       <r>   -0.4103    1.0000 </r>
       <r>   -0.4103    1.0000 </r>
       <r>   -0.4103    1.0000 </r>
       <r>   -0.4060    1.0000 </r>
       <r>   -0.4060    1.0000 </r>
       <r>   -0.3813    1.0000 </r>
       <r>   -0.3813    1.0000 </r>
       <r>   -0.3813    1.0000 </r>
       <r>   -0.3813    1.0000 </r>
       <r>   -0.3762    1.0000 </r>
       <r>   -0.3762    1.0000 </r>
       <r>   -0.3741    1.0000 </r>
       <r>   -0.3741    1.0000 </r>
       <r>   -0.3741    1.0000 </r>
       <r>   -0.3741    1.0000 </r>
       <r>   -0.3733    1.0000 </r>
       <r>   -0.3733    1.0000 </r>
       <r>   -0.3733    1.0000 </r>
       <r>   -0.3733    1.0000 </r>
       <r>   -0.3470    1.0000 </r>
       <r>   -0.3470    1.0000 </r>
       <r>   -0.3470    1.0000 </r>
       <r>   -0.3470    1.0000 </r>
       <r>   -0.3315    1.0000 </r>
       <r>   -0.3315    1.0000 </r>
       <r>   -0.2686    1.0000 </r>
       <r>   -0.2686    1.0000 </r>
       <r>   -0.2175    1.0000 </r>
       <r>   -0.2175    1.0000 </r>
       <r>   -0.2175    1.0000 </r>
       <r>   -0.2175    1.0000 </r>
       <r>   -0.2012    1.0000 </r>
       <r>   -0.2012    1.0000 </r>
       <r>   -0.1929    1.0000 </r>
       <r>   -0.1929    1.0000 </r>
       <r>   -0.1929    1.0000 </r>
       <r>   -0.1929    1.0000 </r>
       <r>   -0.1722    1.0000 </r>
       <r>   -0.1722    1.0000 </r>
       <r>   -0.1722    1.0000 </r>
       <r>   -0.1722    1.0000 </r>
       <r>   -0.1719    1.0000 </r>
       <r>   -0.1320    1.0000 </r>
       <r>   -0.1320    1.0000 </r>
       <r>   -0.1320    1.0000 </r>
       <r>   -0.1320    1.0000 </r>
       <r>   -0.0547    1.0000 </r>
       <r>   -0.0547    1.0000 </r>
       <r>   -0.0380    1.0000 </r>
       <r>   -0.0380    1.0000 </r>
       <r>   -0.0380    1.0000 </r>
       <r>   -0.0380    1.0000 </r>
       <r>   -0.0186    1.0000 </r>
       <r>   -0.0186    1.0000 </r>
       <r>   -0.0186    1.0000 </r>
       <r>   -0.0186    1.0000 </r>
       <r>    0.0411    1.0000 </r>
       <r>    0.0411    1.0000 </r>
       <r>    0.0411    1.0000 </r>
       <r>    0.0411    1.0000 </r>
       <r>    0.0850    1.0000 </r>
       <r>    0.0850    1.0000 </r>
       <r>    0.0850    1.0000 </r>
       <r>    0.0850    1.0000 </r>
       <r>    0.1318    1.0000 </r>
       <r>    0.1318    1.0000 </r>
       <r>    0.1318    1.0000 </r>
       <r>    0.1318    1.0000 </r>
       <r>    0.1429    1.0000 </r>
       <r>    0.1429    1.0000 </r>
       <r>    0.1429    1.0000 </r>
       <r>    0.1429    1.0000 </r>
       <r>    0.6584    1.0000 </r>
       <r>    0.6584    1.0000 </r>
       <r>    0.6906    1.0000 </r>
       <r>    0.7228    1.0000 </r>
       <r>    0.7228    1.0000 </r>
       <r>    0.7434    1.0000 </r>
       <r>    0.7652    1.0000 </r>
       <r>    0.7652    1.0000 </r>
       <r>    0.7652    1.0000 </r>
       <r>    0.7652    1.0000 </r>
       <r>    0.7766    1.0000 </r>
       <r>    0.7767    1.0000 </r>
       <r>    0.7889    1.0000 </r>
       <r>    0.7889    1.0000 </r>
       <r>    0.7889    1.0000 </r>
       <r>    0.7889    1.0000 </r>
       <r>    0.7958    1.0000 </r>
       <r>    0.7963    1.0000 </r>
       <r>    0.7963    1.0000 </r>
       <r>    0.7963    1.0000 </r>
       <r>    0.7963    1.0000 </r>
       <r>    0.7999    1.0000 </r>
       <r>    0.8000    1.0000 </r>
       <r>    0.8000    1.0000 </r>
       <r>    0.8000    1.0000 </r>
       <r>    0.8381    1.0000 </r>
       <r>    0.8382    1.0000 </r>
       <r>    0.8631    1.0000 </r>
       <r>    0.8631    1.0000 </r>
       <r>    0.8631    1.0000 </r>
       <r>    0.8631    1.0000 </r>
       <r>    0.8644    1.0000 </r>
       <r>    0.8644    1.0000 </r>
       <r>    0.8644    1.0000 </r>
       <r>    0.8645    1.0000 </r>
       <r>    0.8991    1.0000 </r>
       <r>    0.8991    1.0000 </r>
       <r>    0.8991    1.0000 </r>
       <r>    0.8991    1.0000 </r>
       <r>    0.9126    1.0000 </r>
       <r>    0.9126    1.0000 </r>
       <r>    0.9168    1.0000 </r>
       <r>    0.9168    1.0000 </r>
       <r>    0.9168    1.0000 </r>
       <r>    0.9168    1.0000 </r>
       <r>    0.9612    1.0000 </r>
       <r>    0.9613    1.0000 </r>
       <r>    1.0723    1.0000 </r>
       <r>    1.0723    1.0000 </r>
       <r>    1.0723    1.0000 </r>
       <r>    1.0723    1.0000 </r>
       <r>    1.1028    1.0000 </r>
       <r>    1.1028    1.0000 </r>
       <r>    1.1028    1.0000 </r>
       <r>    1.1028    1.0000 </r>
       <r>    1.1188    1.0000 </r>
       <r>    1.1652    1.0000 </r>
       <r>    1.1652    1.0000 </r>
       <r>    1.1652    1.0000 </r>
       <r>    1.1652    1.0000 </r>
       <r>    1.2041    1.0000 </r>
       <r>    1.2041    1.0000 </r>
       <r>    1.2041    1.0000 </r>
       <r>    1.2041    1.0000 </r>
       <r>    1.2054    1.0000 </r>
       <r>    1.2054    1.0000 </r>
       <r>    1.2054    1.0000 </r>
       <r>    1.2054    1.0000 </r>
       <r>    1.2124    1.0000 </r>
       <r>    1.2124    1.0000 </r>
       <r>    1.2372    1.0000 </r>
       <r>    1.2372    1.0000 </r>
       <r>    1.2372    1.0000 </r>
       <r>    1.2372    1.0000 </r>
       <r>    1.2704    1.0000 </r>
       <r>    1.2704    1.0000 </r>
       <r>    1.2704    1.0000 </r>
       <r>    1.2704    1.0000 </r>
       <r>    1.2951    1.0000 </r>
       <r>    1.2970    1.0000 </r>
       <r>    1.2970    1.0000 </r>
       <r>    1.4561    1.0000 </r>
       <r>    1.4562    1.0000 </r>
       <r>    1.4562    1.0000 </r>
       <r>    1.4562    1.0000 </r>
       <r>    1.5398    1.0000 </r>
       <r>    1.5398    1.0000 </r>
       <r>    1.5398    1.0000 </r>
       <r>    1.5398    1.0000 </r>
       <r>    1.5839    1.0000 </r>
       <r>    1.5839    1.0000 </r>
       <r>    1.5885    1.0000 </r>
       <r>    1.5885    1.0000 </r>
       <r>    1.5885    1.0000 </r>
       <r>    1.5885    1.0000 </r>
       <r>    1.6671    1.0000 </r>
       <r>    1.6671    1.0000 </r>
       <r>    1.6671    1.0000 </r>
       <r>    1.6671    1.0000 </r>
       <r>    1.7324    1.0000 </r>
       <r>    1.7324    1.0000 </r>
       <r>    1.7324    1.0000 </r>
       <r>    1.7324    1.0000 </r>
       <r>    1.7563    1.0000 </r>
       <r>    1.7563    1.0000 </r>
       <r>    1.7563    1.0000 </r>
       <r>    1.7563    1.0000 </r>
       <r>    1.8218    1.0000 </r>
       <r>    1.8218    1.0000 </r>
       <r>    1.8218    1.0000 </r>
       <r>    1.8218    1.0000 </r>
       <r>    1.8912    1.0000 </r>
       <r>    1.8912    1.0000 </r>
       <r>    1.9322    1.0000 </r>
       <r>    1.9322    1.0000 </r>
       <r>    1.9322    1.0000 </r>
       <r>    1.9322    1.0000 </r>
       <r>    2.0266    1.0000 </r>
       <r>    2.0266    1.0000 </r>
       <r>    2.0266    1.0000 </r>
       <r>    2.0266    1.0000 </r>
       <r>    2.1392    1.0000 </r>
       <r>    2.1392    1.0000 </r>
       <r>    2.2201    1.0000 </r>
       <r>    2.2201    1.0000 </r>
       <r>    2.2355    1.0000 </r>
       <r>    2.2355    1.0000 </r>
       <r>    2.2355    1.0000 </r>
       <r>    2.2355    1.0000 </r>
       <r>    2.2451    1.0000 </r>
       <r>    2.2451    1.0000 </r>
       <r>    2.2451    1.0000 </r>
       <r>    2.2451    1.0000 </r>
       <r>    2.2488    1.0000 </r>
       <r>    2.2488    1.0000 </r>
       <r>    2.2488    1.0000 </r>
       <r>    2.2488    1.0000 </r>
       <r>    2.4115    1.0000 </r>
       <r>    2.4115    1.0000 </r>
       <r>    2.4115    1.0000 </r>
       <r>    2.4115    1.0000 </r>
       <r>    2.4828    1.0000 </r>
       <r>    2.4828    1.0000 </r>
       <r>    2.4828    1.0000 </r>
       <r>    2.4828    1.0000 </r>
       <r>    2.5370    1.0000 </r>
       <r>    2.5370    1.0000 </r>
       <r>    2.5370    1.0000 </r>
       <r>    2.5370    1.0000 </r>
       <r>    2.5812    1.0000 </r>
       <r>    2.5812    1.0000 </r>
       <r>    2.5812    1.0000 </r>
       <r>    2.5812    1.0000 </r>
       <r>    2.7090    1.0000 </r>
       <r>    2.7090    1.0000 </r>
       <r>    2.7090    1.0000 </r>
       <r>    2.7090    1.0000 </r>
       <r>    3.1019    1.0000 </r>
       <r>    3.1019    1.0000 </r>
       <r>    3.1501    1.0000 </r>
       <r>    4.2015    0.0000 </r>
       <r>    5.4584    0.0000 </r>
       <r>    5.4584    0.0000 </r>
       <r>    5.4764    0.0000 </r>
       <r>    5.4764    0.0000 </r>
       <r>    5.4764    0.0000 </r>
       <r>    5.4764    0.0000 </r>
       <r>    5.8236    0.0000 </r>
       <r>    5.8236    0.0000 </r>
       <r>    5.8236    0.0000 </r>
       <r>    5.8236    0.0000 </r>
       <r>    6.0559    0.0000 </r>
       <r>    6.0559    0.0000 </r>
       <r>    6.1055    0.0000 </r>
       <r>    6.2210    0.0000 </r>
       <r>    6.2210    0.0000 </r>
       <r>    6.3329    0.0000 </r>
       <r>    6.3329    0.0000 </r>
       <r>    6.4141    0.0000 </r>
       <r>    6.4141    0.0000 </r>
       <r>    6.4141    0.0000 </r>
       <r>    6.4141    0.0000 </r>
       <r>    6.4694    0.0000 </r>
       <r>    6.4694    0.0000 </r>
       <r>    6.4694    0.0000 </r>
       <r>    6.4694    0.0000 </r>
       <r>    6.5965    0.0000 </r>
       <r>    6.5965    0.0000 </r>
       <r>    6.6425    0.0000 </r>
       <r>    6.8911    0.0000 </r>
       <r>    6.8911    0.0000 </r>
       <r>    6.8911    0.0000 </r>
       <r>    6.8911    0.0000 </r>
       <r>    6.9235    0.0000 </r>
       <r>    6.9235    0.0000 </r>
       <r>    6.9235    0.0000 </r>
       <r>    6.9235    0.0000 </r>
       <r>    6.9378    0.0000 </r>
       <r>    6.9378    0.0000 </r>
       <r>    6.9378    0.0000 </r>
       <r>    6.9378    0.0000 </r>
       <r>    6.9669    0.0000 </r>
       <r>    6.9669    0.0000 </r>
       <r>    6.9669    0.0000 </r>
       <r>    6.9669    0.0000 </r>
       <r>    6.9885    0.0000 </r>
       <r>    6.9885    0.0000 </r>
       <r>    7.3735    0.0000 </r>
       <r>    7.3735    0.0000 </r>
       <r>    7.3735    0.0000 </r>
       <r>    7.3735    0.0000 </r>
       <r>    7.4276    0.0000 </r>
       <r>    7.4276    0.0000 </r>
       <r>    7.4276    0.0000 </r>
       <r>    7.4276    0.0000 </r>
       <r>    7.6728    0.0000 </r>
       <r>    7.6728    0.0000 </r>
       <r>    7.6728    0.0000 </r>
       <r>    7.6728    0.0000 </r>
       <r>    7.7753    0.0000 </r>
       <r>    7.7753    0.0000 </r>
       <r>    8.0149    0.0000 </r>
       <r>    8.0149    0.0000 </r>
       <r>    8.0149    0.0000 </r>
       <r>    8.0149    0.0000 </r>
       <r>    8.2147    0.0000 </r>
       <r>    8.2147    0.0000 </r>
       <r>    8.2147    0.0000 </r>
       <r>    8.2147    0.0000 </r>
       <r>    8.2189    0.0000 </r>
       <r>    8.2189    0.0000 </r>
       <r>    8.2285    0.0000 </r>
       <r>    8.2285    0.0000 </r>
       <r>    8.4266    0.0000 </r>
       <r>    8.4266    0.0000 </r>
       <r>    8.4266    0.0000 </r>
       <r>    8.4266    0.0000 </r>
       <r>    8.4482    0.0000 </r>
       <r>    8.4482    0.0000 </r>
       <r>    8.5397    0.0000 </r>
       <r>    8.5397    0.0000 </r>
       <r>    8.5397    0.0000 </r>
       <r>    8.5397    0.0000 </r>
       <r>    8.6606    0.0000 </r>
       <r>    8.6606    0.0000 </r>
       <r>    8.6606    0.0000 </r>
       <r>    8.6606    0.0000 </r>
       <r>    8.7316    0.0000 </r>
       <r>    8.7316    0.0000 </r>
       <r>    8.8244    0.0000 </r>
       <r>    8.8244    0.0000 </r>
       <r>    8.8244    0.0000 </r>
       <r>    8.8244    0.0000 </r>
       <r>    8.8590    0.0000 </r>
       <r>    8.8591    0.0000 </r>
       <r>    8.8591    0.0000 </r>
       <r>    8.8591    0.0000 </r>
       <r>    8.9504    0.0000 </r>
       <r>    9.0153    0.0000 </r>
       <r>    9.0153    0.0000 </r>
       <r>    9.0154    0.0000 </r>
       <r>    9.0154    0.0000 </r>
       <r>    9.0785    0.0000 </r>
       <r>    9.0786    0.0000 </r>
       <r>    9.0789    0.0000 </r>
       <r>    9.0808    0.0000 </r>
       <r>    9.0893    0.0000 </r>
       <r>    9.0895    0.0000 </r>
       <r>    9.2717    0.0000 </r>
       <r>    9.2731    0.0000 </r>
       <r>    9.2788    0.0000 </r>
       <r>    9.2878    0.0000 </r>
       <r>    9.3461    0.0000 </r>
       <r>    9.3514    0.0000 </r>
       <r>    9.3672    0.0000 </r>
      </set>
      <set comment="kpoint 2">
       <r>  -13.6584    1.0000 </r>
       <r>  -13.6584    1.0000 </r>
       <r>  -13.6584    1.0000 </r>
       <r>  -13.6584    1.0000 </r>
       <r>  -13.6570    1.0000 </r>
       <r>  -13.6570    1.0000 </r>
       <r>  -13.6570    1.0000 </r>
       <r>  -13.6570    1.0000 </r>
       <r>  -13.6547    1.0000 </r>
       <r>  -13.6547    1.0000 </r>
       <r>  -13.6476    1.0000 </r>
       <r>  -13.6476    1.0000 </r>
       <r>  -13.6476    1.0000 </r>
       <r>  -13.6476    1.0000 </r>
       <r>  -13.6471    1.0000 </r>
       <r>  -13.6471    1.0000 </r>
       <r>  -13.6465    1.0000 </r>
       <r>  -13.6465    1.0000 </r>
       <r>  -13.6465    1.0000 </r>
       <r>  -13.6465    1.0000 </r>
       <r>  -13.6462    1.0000 </r>
       <r>  -13.6462    1.0000 </r>
       <r>  -13.6462    1.0000 </r>
       <r>  -13.6462    1.0000 </r>
       <r>  -13.6411    1.0000 </r>
       <r>  -13.6411    1.0000 </r>
       <r>  -13.6392    1.0000 </r>
       <r>  -13.6392    1.0000 </r>
       <r>  -13.6392    1.0000 </r>
       <r>  -13.6392    1.0000 </r>
       <r>  -13.6331    1.0000 </r>
       <r>  -13.6331    1.0000 </r>
       <r>  -13.6193    1.0000 </r>
       <r>  -13.6193    1.0000 </r>
       <r>  -13.6000    1.0000 </r>
       <r>  -13.6000    1.0000 </r>
       <r>  -13.6000    1.0000 </r>
       <r>  -13.6000    1.0000 </r>
       <r>  -13.5707    1.0000 </r>
       <r>  -13.5707    1.0000 </r>
       <r>  -13.5707    1.0000 </r>
       <r>  -13.5707    1.0000 </r>
       <r>  -13.5661    1.0000 </r>
       <r>  -13.5661    1.0000 </r>
       <r>  -13.5661    1.0000 </r>
       <r>  -13.5661    1.0000 </r>
       <r>  -13.5495    1.0000 </r>
       <r>  -13.5495    1.0000 </r>
       <r>  -13.5123    1.0000 </r>
       <r>  -13.5123    1.0000 </r>
       <r>  -13.4752    1.0000 </r>
       <r>  -13.4752    1.0000 </r>
       <r>  -13.4752    1.0000 </r>
       <r>  -13.4752    1.0000 </r>
       <r>  -13.4684    1.0000 </r>
       <r>  -13.4684    1.0000 </r>
       <r>  -13.4684    1.0000 </r>
       <r>  -13.4684    1.0000 </r>
       <r>  -13.4416    1.0000 </r>
       <r>  -13.4416    1.0000 </r>
       <r>  -13.4416    1.0000 </r>
       <r>  -13.4416    1.0000 </r>
       <r>  -13.3936    1.0000 </r>
       <r>  -13.3936    1.0000 </r>
       <r>  -13.3847    1.0000 </r>
       <r>  -13.3847    1.0000 </r>
       <r>  -13.3797    1.0000 </r>
       <r>  -13.3797    1.0000 </r>
       <r>  -13.3797    1.0000 </r>
       <r>  -13.3797    1.0000 </r>
       <r>  -13.3763    1.0000 </r>
       <r>  -13.3763    1.0000 </r>
       <r>  -13.3763    1.0000 </r>
       <r>  -13.3763    1.0000 </r>
       <r>  -13.3668    1.0000 </r>
       <r>  -13.3668    1.0000 </r>
       <r>  -13.3668    1.0000 </r>
       <r>  -13.3668    1.0000 </r>
       <r>  -13.3622    1.0000 </r>
       <r>  -13.3622    1.0000 </r>
       <r>  -13.3622    1.0000 </r>
       <r>  -13.3622    1.0000 </r>
       <r>  -13.3622    1.0000 </r>
       <r>  -13.3622    1.0000 </r>
       <r>  -13.3621    1.0000 </r>
       <r>  -13.3621    1.0000 </r>
       <r>  -13.3561    1.0000 </r>
       <r>  -13.3561    1.0000 </r>
       <r>  -13.3553    1.0000 </r>
       <r>  -13.3553    1.0000 </r>
       <r>  -13.3500    1.0000 </r>
       <r>  -13.3500    1.0000 </r>
       <r>  -13.3500    1.0000 </r>
       <r>  -13.3500    1.0000 </r>
       <r>  -13.3422    1.0000 </r>
       <r>  -13.3422    1.0000 </r>
       <r>  -13.2763    1.0000 </r>
       <r>  -13.2763    1.0000 </r>
       <r>  -13.2763    1.0000 </r>
       <r>  -13.2763    1.0000 </r>
       <r>  -13.2752    1.0000 </r>
       <r>  -13.2752    1.0000 </r>
       <r>  -13.2740    1.0000 </r>
       <r>  -13.2740    1.0000 </r>
       <r>  -13.2697    1.0000 </r>
       <r>  -13.2697    1.0000 </r>
       <r>  -13.2662    1.0000 </r>
       <r>  -13.2661    1.0000 </r>
       <r>  -13.2651    1.0000 </r>
       <r>  -13.2651    1.0000 </r>
       <r>  -13.2651    1.0000 </r>
       <r>  -13.2651    1.0000 </r>
       <r>  -13.2641    1.0000 </r>
       <r>  -13.2641    1.0000 </r>
       <r>  -13.2641    1.0000 </r>
       <r>  -13.2641    1.0000 </r>
       <r>  -13.2637    1.0000 </r>
       <r>  -13.2637    1.0000 </r>
       <r>  -13.2637    1.0000 </r>
       <r>  -13.2637    1.0000 </r>
       <r>  -13.2635    1.0000 </r>
       <r>  -13.2635    1.0000 </r>
       <r>  -13.2635    1.0000 </r>
       <r>  -13.2635    1.0000 </r>
       <r>  -13.2628    1.0000 </r>
       <r>  -13.2628    1.0000 </r>
       <r>  -13.2628    1.0000 </r>
       <r>  -13.2628    1.0000 </r>
       <r>  -13.2540    1.0000 </r>
       <r>  -13.2540    1.0000 </r>
       <r>  -13.2521    1.0000 </r>
       <r>  -13.2521    1.0000 </r>
       <r>  -13.2521    1.0000 </r>
       <r>  -13.2521    1.0000 </r>
       <r>  -13.2497    1.0000 </r>
       <r>  -13.2497    1.0000 </r>
       <r>  -13.2497    1.0000 </r>
       <r>  -13.2497    1.0000 </r>
       <r>  -13.2497    1.0000 </r>
       <r>  -13.2497    1.0000 </r>
       <r>  -13.2497    1.0000 </r>
       <r>  -13.2497    1.0000 </r>
       <r>  -13.2448    1.0000 </r>
       <r>  -13.2448    1.0000 </r>
       <r>  -13.2448    1.0000 </r>
       <r>  -13.2448    1.0000 </r>
       <r>  -13.2446    1.0000 </r>
       <r>  -13.2446    1.0000 </r>
       <r>  -13.2446    1.0000 </r>
       <r>  -13.2446    1.0000 </r>
       <r>  -13.2417    1.0000 </r>
       <r>  -13.2417    1.0000 </r>
       <r>  -13.2408    1.0000 </r>
       <r>  -13.2408    1.0000 </r>
       <r>  -13.2406    1.0000 </r>
       <r>  -13.2406    1.0000 </r>
       <r>  -13.2377    1.0000 </r>
       <r>  -13.2377    1.0000 </r>
       <r>  -13.2377    1.0000 </r>
       <r>  -13.2377    1.0000 </r>
       <r>  -11.7970    1.0000 </r>
       <r>  -11.7970    1.0000 </r>
       <r>  -11.6088    1.0000 </r>
       <r>  -11.6088    1.0000 </r>
       <r>  -11.6088    1.0000 </r>
       <r>  -11.6088    1.0000 </r>
       <r>  -11.2291    1.0000 </r>
       <r>  -11.2291    1.0000 </r>
       <r>  -11.2291    1.0000 </r>
       <r>  -11.2291    1.0000 </r>
       <r>  -11.2098    1.0000 </r>
       <r>  -11.2098    1.0000 </r>
       <r>  -11.2098    1.0000 </r>
       <r>  -11.2098    1.0000 </r>
       <r>  -11.1728    1.0000 </r>
       <r>  -11.1728    1.0000 </r>
       <r>  -11.1163    1.0000 </r>
       <r>  -11.1163    1.0000 </r>
       <r>  -10.8915    1.0000 </r>
       <r>  -10.8915    1.0000 </r>
       <r>  -10.8915    1.0000 </r>
       <r>  -10.8915    1.0000 </r>
       <r>  -10.8185    1.0000 </r>
       <r>  -10.8185    1.0000 </r>
       <r>  -10.8185    1.0000 </r>
       <r>  -10.8185    1.0000 </r>
       <r>  -10.6737    1.0000 </r>
       <r>  -10.6737    1.0000 </r>
       <r>  -10.6737    1.0000 </r>
       <r>  -10.6737    1.0000 </r>
       <r>  -10.6624    1.0000 </r>
       <r>  -10.6624    1.0000 </r>
       <r>  -10.6624    1.0000 </r>
       <r>  -10.6624    1.0000 </r>
       <r>  -10.6064    1.0000 </r>
       <r>  -10.6064    1.0000 </r>
       <r>  -10.5943    1.0000 </r>
       <r>  -10.5943    1.0000 </r>
       <r>  -10.5943    1.0000 </r>
       <r>  -10.5943    1.0000 </r>
       <r>  -10.5338    1.0000 </r>
       <r>  -10.5338    1.0000 </r>
       <r>  -10.5338    1.0000 </r>
       <r>  -10.5338    1.0000 </r>
       <r>  -10.4900    1.0000 </r>
       <r>  -10.4900    1.0000 </r>
       <r>  -10.4807    1.0000 </r>
       <r>  -10.4807    1.0000 </r>
       <r>  -10.4807    1.0000 </r>
       <r>  -10.4807    1.0000 </r>
       <r>  -10.4710    1.0000 </r>
       <r>  -10.4710    1.0000 </r>
       <r>  -10.4557    1.0000 </r>
       <r>  -10.4557    1.0000 </r>
       <r>  -10.4557    1.0000 </r>
       <r>  -10.4557    1.0000 </r>
       <r>  -10.3940    1.0000 </r>
       <r>  -10.3940    1.0000 </r>
       <r>  -10.3940    1.0000 </r>
       <r>  -10.3940    1.0000 </r>
       <r>  -10.3748    1.0000 </r>
       <r>  -10.3748    1.0000 </r>
       <r>  -10.3695    1.0000 </r>
       <r>  -10.3695    1.0000 </r>
       <r>   -3.7647    1.0000 </r>
       <r>   -3.7647    1.0000 </r>
       <r>   -3.6044    1.0000 </r>
       <r>   -3.6044    1.0000 </r>
       <r>   -3.6044    1.0000 </r>
       <r>   -3.6044    1.0000 </r>
       <r>   -3.5881    1.0000 </r>
       <r>   -3.5881    1.0000 </r>
       <r>   -3.5881    1.0000 </r>
       <r>   -3.5881    1.0000 </r>
       <r>   -3.5633    1.0000 </r>
       <r>   -3.5633    1.0000 </r>
       <r>   -3.5633    1.0000 </r>
       <r>   -3.5633    1.0000 </r>
       <r>   -3.3513    1.0000 </r>
       <r>   -3.3513    1.0000 </r>
       <r>   -3.2476    1.0000 </r>
       <r>   -3.2476    1.0000 </r>
       <r>   -3.2476    1.0000 </r>
       <r>   -3.2476    1.0000 </r>
       <r>   -3.1779    1.0000 </r>
       <r>   -3.1779    1.0000 </r>
       <r>   -3.1779    1.0000 </r>
       <r>   -3.1779    1.0000 </r>
       <r>   -3.1682    1.0000 </r>
       <r>   -3.1682    1.0000 </r>
       <r>   -2.9527    1.0000 </r>
       <r>   -2.9527    1.0000 </r>
       <r>   -2.9527    1.0000 </r>
       <r>   -2.9527    1.0000 </r>
       <r>   -2.8259    1.0000 </r>
       <r>   -2.8259    1.0000 </r>
       <r>   -2.1186    1.0000 </r>
       <r>   -2.1186    1.0000 </r>
       <r>   -2.1186    1.0000 </r>
       <r>   -2.1186    1.0000 </r>
       <r>   -1.9549    1.0000 </r>
       <r>   -1.9549    1.0000 </r>
       <r>   -1.9549    1.0000 </r>
       <r>   -1.9549    1.0000 </r>
       <r>   -1.7704    1.0000 </r>
       <r>   -1.7704    1.0000 </r>
       <r>   -1.7621    1.0000 </r>
       <r>   -1.7621    1.0000 </r>
       <r>   -1.7621    1.0000 </r>
       <r>   -1.7621    1.0000 </r>
       <r>   -1.7132    1.0000 </r>
       <r>   -1.7132    1.0000 </r>
       <r>   -1.7132    1.0000 </r>
       <r>   -1.7132    1.0000 </r>
       <r>   -1.6760    1.0000 </r>
       <r>   -1.6760    1.0000 </r>
       <r>   -1.6760    1.0000 </r>
       <r>   -1.6760    1.0000 </r>
       <r>   -1.4589    1.0000 </r>
       <r>   -1.4589    1.0000 </r>
       <r>   -1.3405    1.0000 </r>
       <r>   -1.3405    1.0000 </r>
       <r>   -1.3381    1.0000 </r>
       <r>   -1.3381    1.0000 </r>
       <r>   -1.3381    1.0000 </r>
       <r>   -1.3381    1.0000 </r>
       <r>   -1.2974    1.0000 </r>
       <r>   -1.2974    1.0000 </r>
       <r>   -1.2878    1.0000 </r>
       <r>   -1.2878    1.0000 </r>
       <r>   -1.2878    1.0000 </r>
       <r>   -1.2878    1.0000 </r>
       <r>   -1.2575    1.0000 </r>
       <r>   -1.2575    1.0000 </r>
       <r>   -0.9778    1.0000 </r>
       <r>   -0.9778    1.0000 </r>
       <r>   -0.9710    1.0000 </r>
       <r>   -0.9710    1.0000 </r>
       <r>   -0.9710    1.0000 </r>
       <r>   -0.9710    1.0000 </r>
       <r>   -0.9607    1.0000 </r>
       <r>   -0.9607    1.0000 </r>
       <r>   -0.9607    1.0000 </r>
       <r>   -0.9607    1.0000 </r>
       <r>   -0.7514    1.0000 </r>
       <r>   -0.7514    1.0000 </r>
       <r>   -0.7514    1.0000 </r>
       <r>   -0.7514    1.0000 </r>
       <r>   -0.7253    1.0000 </r>
       <r>   -0.7253    1.0000 </r>
       <r>   -0.7108    1.0000 </r>
       <r>   -0.7108    1.0000 </r>
       <r>   -0.7108    1.0000 </r>
       <r>   -0.7108    1.0000 </r>
       <r>   -0.6522    1.0000 </r>
       <r>   -0.6522    1.0000 </r>
       <r>   -0.6178    1.0000 </r>
       <r>   -0.6178    1.0000 </r>
       <r>   -0.6178    1.0000 </r>
       <r>   -0.6178    1.0000 </r>
       <r>   -0.6143    1.0000 </r>
       <r>   -0.6143    1.0000 </r>
       <r>   -0.6103    1.0000 </r>
       <r>   -0.6103    1.0000 </r>
       <r>   -0.6103    1.0000 </r>
       <r>   -0.6103    1.0000 </r>
       <r>   -0.5287    1.0000 </r>
       <r>   -0.5287    1.0000 </r>
       <r>   -0.5148    1.0000 </r>
       <r>   -0.5148    1.0000 </r>
       <r>   -0.4911    1.0000 </r>
       <r>   -0.4911    1.0000 </r>
       <r>   -0.4911    1.0000 </r>
       <r>   -0.4911    1.0000 </r>
       <r>   -0.4894    1.0000 </r>
       <r>   -0.4894    1.0000 </r>
       <r>   -0.4894    1.0000 </r>
       <r>   -0.4894    1.0000 </r>
       <r>   -0.4793    1.0000 </r>
       <r>   -0.4793    1.0000 </r>
       <r>   -0.4736    1.0000 </r>
       <r>   -0.4736    1.0000 </r>
       <r>   -0.4649    1.0000 </r>
       <r>   -0.4649    1.0000 </r>
       <r>   -0.4649    1.0000 </r>
       <r>   -0.4649    1.0000 </r>
       <r>   -0.4492    1.0000 </r>
       <r>   -0.4492    1.0000 </r>
       <r>   -0.4492    1.0000 </r>
       <r>   -0.4492    1.0000 </r>
       <r>   -0.4066    1.0000 </r>
       <r>   -0.4066    1.0000 </r>
       <r>   -0.4066    1.0000 </r>
       <r>   -0.4066    1.0000 </r>
       <r>   -0.3920    1.0000 </r>
       <r>   -0.3920    1.0000 </r>
       <r>   -0.3920    1.0000 </r>
       <r>   -0.3920    1.0000 </r>
       <r>   -0.3267    1.0000 </r>
       <r>   -0.3267    1.0000 </r>
       <r>   -0.3147    1.0000 </r>
       <r>   -0.3146    1.0000 </r>
       <r>   -0.3146    1.0000 </r>
       <r>   -0.3146    1.0000 </r>
       <r>   -0.2529    1.0000 </r>
       <r>   -0.2529    1.0000 </r>
       <r>   -0.2529    1.0000 </r>
       <r>   -0.2529    1.0000 </r>
       <r>   -0.2354    1.0000 </r>
       <r>   -0.2354    1.0000 </r>
       <r>   -0.2354    1.0000 </r>
       <r>   -0.2354    1.0000 </r>
       <r>   -0.2285    1.0000 </r>
       <r>   -0.2285    1.0000 </r>
       <r>   -0.2159    1.0000 </r>
       <r>   -0.2159    1.0000 </r>
       <r>   -0.2027    1.0000 </r>
       <r>   -0.2027    1.0000 </r>
       <r>   -0.1810    1.0000 </r>
       <r>   -0.1810    1.0000 </r>
       <r>   -0.1810    1.0000 </r>
       <r>   -0.1810    1.0000 </r>
       <r>   -0.1499    1.0000 </r>
       <r>   -0.1499    1.0000 </r>
       <r>   -0.1499    1.0000 </r>
       <r>   -0.1499    1.0000 </r>
       <r>   -0.1172    1.0000 </r>
       <r>   -0.1172    1.0000 </r>
       <r>   -0.0938    1.0000 </r>
       <r>   -0.0938    1.0000 </r>
       <r>   -0.0938    1.0000 </r>
       <r>   -0.0938    1.0000 </r>
       <r>    0.0096    1.0000 </r>
       <r>    0.0096    1.0000 </r>
       <r>    0.0096    1.0000 </r>
       <r>    0.0096    1.0000 </r>
       <r>    0.0359    1.0000 </r>
       <r>    0.0359    1.0000 </r>
       <r>    0.0359    1.0000 </r>
       <r>    0.0359    1.0000 </r>
       <r>    0.0476    1.0000 </r>
       <r>    0.0476    1.0000 </r>
       <r>    0.0476    1.0000 </r>
       <r>    0.0476    1.0000 </r>
       <r>    0.0553    1.0000 </r>
       <r>    0.0553    1.0000 </r>
       <r>    0.1001    1.0000 </r>
       <r>    0.1001    1.0000 </r>
       <r>    0.1002    1.0000 </r>
       <r>    0.1002    1.0000 </r>
       <r>    0.1002    1.0000 </r>
       <r>    0.1002    1.0000 </r>
       <r>    0.1305    1.0000 </r>
       <r>    0.1305    1.0000 </r>
       <r>    0.1305    1.0000 </r>
       <r>    0.1305    1.0000 </r>
       <r>    0.7410    1.0000 </r>
       <r>    0.7410    1.0000 </r>
       <r>    0.7647    1.0000 </r>
       <r>    0.7647    1.0000 </r>
       <r>    0.7647    1.0000 </r>
       <r>    0.7647    1.0000 </r>
       <r>    0.7673    1.0000 </r>
       <r>    0.7673    1.0000 </r>
       <r>    0.7899    1.0000 </r>
       <r>    0.7899    1.0000 </r>
       <r>    0.7899    1.0000 </r>
       <r>    0.7899    1.0000 </r>
       <r>    0.8015    1.0000 </r>
       <r>    0.8015    1.0000 </r>
       <r>    0.8015    1.0000 </r>
       <r>    0.8015    1.0000 </r>
       <r>    0.8188    1.0000 </r>
       <r>    0.8188    1.0000 </r>
       <r>    0.8188    1.0000 </r>
       <r>    0.8188    1.0000 </r>
       <r>    0.8245    1.0000 </r>
       <r>    0.8245    1.0000 </r>
       <r>    0.8245    1.0000 </r>
       <r>    0.8245    1.0000 </r>
       <r>    0.8448    1.0000 </r>
       <r>    0.8448    1.0000 </r>
       <r>    0.8448    1.0000 </r>
       <r>    0.8448    1.0000 </r>
       <r>    0.8502    1.0000 </r>
       <r>    0.8502    1.0000 </r>
       <r>    0.8545    1.0000 </r>
       <r>    0.8545    1.0000 </r>
       <r>    0.8594    1.0000 </r>
       <r>    0.8594    1.0000 </r>
       <r>    0.8970    1.0000 </r>
       <r>    0.8970    1.0000 </r>
       <r>    0.9056    1.0000 </r>
       <r>    0.9056    1.0000 </r>
       <r>    0.9056    1.0000 </r>
       <r>    0.9056    1.0000 </r>
       <r>    0.9349    1.0000 </r>
       <r>    0.9349    1.0000 </r>
       <r>    0.9349    1.0000 </r>
       <r>    0.9349    1.0000 </r>
       <r>    0.9463    1.0000 </r>
       <r>    0.9463    1.0000 </r>
       <r>    0.9463    1.0000 </r>
       <r>    0.9463    1.0000 </r>
       <r>    0.9772    1.0000 </r>
       <r>    0.9772    1.0000 </r>
       <r>    0.9772    1.0000 </r>
       <r>    0.9772    1.0000 </r>
       <r>    0.9961    1.0000 </r>
       <r>    0.9961    1.0000 </r>
       <r>    1.0134    1.0000 </r>
       <r>    1.0134    1.0000 </r>
       <r>    1.1076    1.0000 </r>
       <r>    1.1076    1.0000 </r>
       <r>    1.1076    1.0000 </r>
       <r>    1.1076    1.0000 </r>
       <r>    1.1245    1.0000 </r>
       <r>    1.1245    1.0000 </r>
       <r>    1.1425    1.0000 </r>
       <r>    1.1425    1.0000 </r>
       <r>    1.1425    1.0000 </r>
       <r>    1.1425    1.0000 </r>
       <r>    1.2447    1.0000 </r>
       <r>    1.2447    1.0000 </r>
       <r>    1.3007    1.0000 </r>
       <r>    1.3007    1.0000 </r>
       <r>    1.3007    1.0000 </r>
       <r>    1.3007    1.0000 </r>
       <r>    1.3566    1.0000 </r>
       <r>    1.3566    1.0000 </r>
       <r>    1.3566    1.0000 </r>
       <r>    1.3566    1.0000 </r>
       <r>    1.4851    1.0000 </r>
       <r>    1.4851    1.0000 </r>
       <r>    1.4864    1.0000 </r>
       <r>    1.4864    1.0000 </r>
       <r>    1.4864    1.0000 </r>
       <r>    1.4864    1.0000 </r>
       <r>    1.4938    1.0000 </r>
       <r>    1.4938    1.0000 </r>
       <r>    1.5381    1.0000 </r>
       <r>    1.5381    1.0000 </r>
       <r>    1.5532    1.0000 </r>
       <r>    1.5532    1.0000 </r>
       <r>    1.5532    1.0000 </r>
       <r>    1.5532    1.0000 </r>
       <r>    1.5829    1.0000 </r>
       <r>    1.5829    1.0000 </r>
       <r>    1.5978    1.0000 </r>
       <r>    1.5978    1.0000 </r>
       <r>    1.5978    1.0000 </r>
       <r>    1.5979    1.0000 </r>
       <r>    1.6106    1.0000 </r>
       <r>    1.6106    1.0000 </r>
       <r>    1.6106    1.0000 </r>
       <r>    1.6106    1.0000 </r>
       <r>    1.6129    1.0000 </r>
       <r>    1.6129    1.0000 </r>
       <r>    1.6129    1.0000 </r>
       <r>    1.6129    1.0000 </r>
       <r>    1.7648    1.0000 </r>
       <r>    1.7648    1.0000 </r>
       <r>    1.7648    1.0000 </r>
       <r>    1.7648    1.0000 </r>
       <r>    1.8543    1.0000 </r>
       <r>    1.8543    1.0000 </r>
       <r>    1.8543    1.0000 </r>
       <r>    1.8543    1.0000 </r>
       <r>    1.9077    1.0000 </r>
       <r>    1.9077    1.0000 </r>
       <r>    1.9092    1.0000 </r>
       <r>    1.9092    1.0000 </r>
       <r>    1.9092    1.0000 </r>
       <r>    1.9092    1.0000 </r>
       <r>    2.0040    1.0000 </r>
       <r>    2.0040    1.0000 </r>
       <r>    2.0040    1.0000 </r>
       <r>    2.0040    1.0000 </r>
       <r>    2.1128    1.0000 </r>
       <r>    2.1128    1.0000 </r>
       <r>    2.1129    1.0000 </r>
       <r>    2.1129    1.0000 </r>
       <r>    2.1651    1.0000 </r>
       <r>    2.1651    1.0000 </r>
       <r>    2.2494    1.0000 </r>
       <r>    2.2494    1.0000 </r>
       <r>    2.3433    1.0000 </r>
       <r>    2.3433    1.0000 </r>
       <r>    2.3433    1.0000 </r>
       <r>    2.3433    1.0000 </r>
       <r>    2.3460    1.0000 </r>
       <r>    2.3460    1.0000 </r>
       <r>    2.3460    1.0000 </r>
       <r>    2.3460    1.0000 </r>
       <r>    2.3505    1.0000 </r>
       <r>    2.3505    1.0000 </r>
       <r>    2.3505    1.0000 </r>
       <r>    2.3505    1.0000 </r>
       <r>    2.3616    1.0000 </r>
       <r>    2.3616    1.0000 </r>
       <r>    2.3616    1.0000 </r>
       <r>    2.3616    1.0000 </r>
       <r>    2.3617    1.0000 </r>
       <r>    2.3617    1.0000 </r>
       <r>    2.5028    1.0000 </r>
       <r>    2.5028    1.0000 </r>
       <r>    2.5028    1.0000 </r>
       <r>    2.5028    1.0000 </r>
       <r>    2.7135    1.0000 </r>
       <r>    2.7135    1.0000 </r>
       <r>    2.7810    1.0000 </r>
       <r>    2.7810    1.0000 </r>
       <r>    2.9358    1.0000 </r>
       <r>    2.9358    1.0000 </r>
       <r>    2.9358    1.0000 </r>
       <r>    2.9358    1.0000 </r>
       <r>    5.5040    0.0000 </r>
       <r>    5.5040    0.0000 </r>
       <r>    5.7752    0.0000 </r>
       <r>    5.7752    0.0000 </r>
       <r>    5.7752    0.0000 </r>
       <r>    5.7752    0.0000 </r>
       <r>    5.9544    0.0000 </r>
       <r>    5.9544    0.0000 </r>
       <r>    5.9544    0.0000 </r>
       <r>    5.9544    0.0000 </r>
       <r>    6.0438    0.0000 </r>
       <r>    6.0438    0.0000 </r>
       <r>    6.0438    0.0000 </r>
       <r>    6.0438    0.0000 </r>
       <r>    6.2013    0.0000 </r>
       <r>    6.2013    0.0000 </r>
       <r>    6.2013    0.0000 </r>
       <r>    6.2013    0.0000 </r>
       <r>    6.2340    0.0000 </r>
       <r>    6.2340    0.0000 </r>
       <r>    6.4126    0.0000 </r>
       <r>    6.4126    0.0000 </r>
       <r>    6.4189    0.0000 </r>
       <r>    6.4189    0.0000 </r>
       <r>    6.4189    0.0000 </r>
       <r>    6.4189    0.0000 </r>
       <r>    6.5642    0.0000 </r>
       <r>    6.5642    0.0000 </r>
       <r>    6.6083    0.0000 </r>
       <r>    6.6083    0.0000 </r>
       <r>    6.6083    0.0000 </r>
       <r>    6.6083    0.0000 </r>
       <r>    6.8829    0.0000 </r>
       <r>    6.8829    0.0000 </r>
       <r>    6.9548    0.0000 </r>
       <r>    6.9548    0.0000 </r>
       <r>    7.0230    0.0000 </r>
       <r>    7.0230    0.0000 </r>
       <r>    7.1221    0.0000 </r>
       <r>    7.1221    0.0000 </r>
       <r>    7.1221    0.0000 </r>
       <r>    7.1221    0.0000 </r>
       <r>    7.2338    0.0000 </r>
       <r>    7.2338    0.0000 </r>
       <r>    7.2338    0.0000 </r>
       <r>    7.2338    0.0000 </r>
       <r>    7.2980    0.0000 </r>
       <r>    7.2980    0.0000 </r>
       <r>    7.2980    0.0000 </r>
       <r>    7.2980    0.0000 </r>
       <r>    7.4046    0.0000 </r>
       <r>    7.4046    0.0000 </r>
       <r>    7.4046    0.0000 </r>
       <r>    7.4046    0.0000 </r>
       <r>    7.6416    0.0000 </r>
       <r>    7.6416    0.0000 </r>
       <r>    7.6416    0.0000 </r>
       <r>    7.6416    0.0000 </r>
       <r>    7.7904    0.0000 </r>
       <r>    7.7904    0.0000 </r>
       <r>    7.8464    0.0000 </r>
       <r>    7.8464    0.0000 </r>
       <r>    7.8746    0.0000 </r>
       <r>    7.8746    0.0000 </r>
       <r>    8.0181    0.0000 </r>
       <r>    8.0181    0.0000 </r>
       <r>    8.0181    0.0000 </r>
       <r>    8.0181    0.0000 </r>
       <r>    8.0891    0.0000 </r>
       <r>    8.0891    0.0000 </r>
       <r>    8.0891    0.0000 </r>
       <r>    8.0891    0.0000 </r>
       <r>    8.1802    0.0000 </r>
       <r>    8.1802    0.0000 </r>
       <r>    8.1918    0.0000 </r>
       <r>    8.1918    0.0000 </r>
       <r>    8.2206    0.0000 </r>
       <r>    8.2206    0.0000 </r>
       <r>    8.2206    0.0000 </r>
       <r>    8.2206    0.0000 </r>
       <r>    8.4148    0.0000 </r>
       <r>    8.4148    0.0000 </r>
       <r>    8.4148    0.0000 </r>
       <r>    8.4148    0.0000 </r>
       <r>    8.4557    0.0000 </r>
       <r>    8.4557    0.0000 </r>
       <r>    8.4557    0.0000 </r>
       <r>    8.4557    0.0000 </r>
       <r>    8.5747    0.0000 </r>
       <r>    8.5747    0.0000 </r>
       <r>    8.7552    0.0000 </r>
       <r>    8.7552    0.0000 </r>
       <r>    8.7552    0.0000 </r>
       <r>    8.7552    0.0000 </r>
       <r>    8.8211    0.0000 </r>
       <r>    8.8211    0.0000 </r>
       <r>    8.8211    0.0000 </r>
       <r>    8.8211    0.0000 </r>
       <r>    8.8511    0.0000 </r>
       <r>    8.8511    0.0000 </r>
       <r>    8.8750    0.0000 </r>
       <r>    8.8750    0.0000 </r>
       <r>    8.8750    0.0000 </r>
       <r>    8.8750    0.0000 </r>
       <r>    9.0076    0.0000 </r>
       <r>    9.0076    0.0000 </r>
       <r>    9.0077    0.0000 </r>
       <r>    9.0079    0.0000 </r>
       <r>    9.0788    0.0000 </r>
       <r>    9.0790    0.0000 </r>
       <r>    9.0798    0.0000 </r>
       <r>    9.0814    0.0000 </r>
       <r>    9.2597    0.0000 </r>
       <r>    9.2643    0.0000 </r>
       <r>    9.2663    0.0000 </r>
      </set>
      <set comment="kpoint 3">
       <r>  -13.6519    1.0000 </r>
       <r>  -13.6519    1.0000 </r>
       <r>  -13.6519    1.0000 </r>
       <r>  -13.6519    1.0000 </r>
       <r>  -13.6519    1.0000 </r>
       <r>  -13.6519    1.0000 </r>
       <r>  -13.6519    1.0000 </r>
       <r>  -13.6519    1.0000 </r>
       <r>  -13.6517    1.0000 </r>
       <r>  -13.6517    1.0000 </r>
       <r>  -13.6517    1.0000 </r>
       <r>  -13.6517    1.0000 </r>
       <r>  -13.6517    1.0000 </r>
       <r>  -13.6517    1.0000 </r>
       <r>  -13.6517    1.0000 </r>
       <r>  -13.6517    1.0000 </r>
       <r>  -13.6482    1.0000 </r>
       <r>  -13.6482    1.0000 </r>
       <r>  -13.6482    1.0000 </r>
       <r>  -13.6482    1.0000 </r>
       <r>  -13.6443    1.0000 </r>
       <r>  -13.6443    1.0000 </r>
       <r>  -13.6443    1.0000 </r>
       <r>  -13.6443    1.0000 </r>
       <r>  -13.6443    1.0000 </r>
       <r>  -13.6443    1.0000 </r>
       <r>  -13.6443    1.0000 </r>
       <r>  -13.6443    1.0000 </r>
       <r>  -13.6435    1.0000 </r>
       <r>  -13.6435    1.0000 </r>
       <r>  -13.6435    1.0000 </r>
       <r>  -13.6435    1.0000 </r>
       <r>  -13.6043    1.0000 </r>
       <r>  -13.6043    1.0000 </r>
       <r>  -13.6043    1.0000 </r>
       <r>  -13.6043    1.0000 </r>
       <r>  -13.5878    1.0000 </r>
       <r>  -13.5878    1.0000 </r>
       <r>  -13.5878    1.0000 </r>
       <r>  -13.5878    1.0000 </r>
       <r>  -13.5878    1.0000 </r>
       <r>  -13.5878    1.0000 </r>
       <r>  -13.5878    1.0000 </r>
       <r>  -13.5878    1.0000 </r>
       <r>  -13.5275    1.0000 </r>
       <r>  -13.5275    1.0000 </r>
       <r>  -13.5275    1.0000 </r>
       <r>  -13.5275    1.0000 </r>
       <r>  -13.5275    1.0000 </r>
       <r>  -13.5275    1.0000 </r>
       <r>  -13.5275    1.0000 </r>
       <r>  -13.5275    1.0000 </r>
       <r>  -13.4518    1.0000 </r>
       <r>  -13.4518    1.0000 </r>
       <r>  -13.4518    1.0000 </r>
       <r>  -13.4518    1.0000 </r>
       <r>  -13.4518    1.0000 </r>
       <r>  -13.4518    1.0000 </r>
       <r>  -13.4518    1.0000 </r>
       <r>  -13.4518    1.0000 </r>
       <r>  -13.4177    1.0000 </r>
       <r>  -13.4177    1.0000 </r>
       <r>  -13.4177    1.0000 </r>
       <r>  -13.4177    1.0000 </r>
       <r>  -13.3796    1.0000 </r>
       <r>  -13.3796    1.0000 </r>
       <r>  -13.3796    1.0000 </r>
       <r>  -13.3795    1.0000 </r>
       <r>  -13.3715    1.0000 </r>
       <r>  -13.3715    1.0000 </r>
       <r>  -13.3715    1.0000 </r>
       <r>  -13.3715    1.0000 </r>
       <r>  -13.3715    1.0000 </r>
       <r>  -13.3715    1.0000 </r>
       <r>  -13.3715    1.0000 </r>
       <r>  -13.3715    1.0000 </r>
       <r>  -13.3653    1.0000 </r>
       <r>  -13.3653    1.0000 </r>
       <r>  -13.3653    1.0000 </r>
       <r>  -13.3653    1.0000 </r>
       <r>  -13.3594    1.0000 </r>
       <r>  -13.3594    1.0000 </r>
       <r>  -13.3594    1.0000 </r>
       <r>  -13.3594    1.0000 </r>
       <r>  -13.3594    1.0000 </r>
       <r>  -13.3594    1.0000 </r>
       <r>  -13.3594    1.0000 </r>
       <r>  -13.3594    1.0000 </r>
       <r>  -13.3575    1.0000 </r>
       <r>  -13.3575    1.0000 </r>
       <r>  -13.3575    1.0000 </r>
       <r>  -13.3575    1.0000 </r>
       <r>  -13.3575    1.0000 </r>
       <r>  -13.3575    1.0000 </r>
       <r>  -13.3575    1.0000 </r>
       <r>  -13.3575    1.0000 </r>
       <r>  -13.2709    1.0000 </r>
       <r>  -13.2709    1.0000 </r>
       <r>  -13.2709    1.0000 </r>
       <r>  -13.2709    1.0000 </r>
       <r>  -13.2709    1.0000 </r>
       <r>  -13.2709    1.0000 </r>
       <r>  -13.2709    1.0000 </r>
       <r>  -13.2709    1.0000 </r>
       <r>  -13.2694    1.0000 </r>
       <r>  -13.2694    1.0000 </r>
       <r>  -13.2694    1.0000 </r>
       <r>  -13.2694    1.0000 </r>
       <r>  -13.2694    1.0000 </r>
       <r>  -13.2694    1.0000 </r>
       <r>  -13.2694    1.0000 </r>
       <r>  -13.2694    1.0000 </r>
       <r>  -13.2656    1.0000 </r>
       <r>  -13.2656    1.0000 </r>
       <r>  -13.2656    1.0000 </r>
       <r>  -13.2656    1.0000 </r>
       <r>  -13.2616    1.0000 </r>
       <r>  -13.2616    1.0000 </r>
       <r>  -13.2616    1.0000 </r>
       <r>  -13.2616    1.0000 </r>
       <r>  -13.2614    1.0000 </r>
       <r>  -13.2614    1.0000 </r>
       <r>  -13.2614    1.0000 </r>
       <r>  -13.2614    1.0000 </r>
       <r>  -13.2614    1.0000 </r>
       <r>  -13.2614    1.0000 </r>
       <r>  -13.2614    1.0000 </r>
       <r>  -13.2614    1.0000 </r>
       <r>  -13.2543    1.0000 </r>
       <r>  -13.2543    1.0000 </r>
       <r>  -13.2543    1.0000 </r>
       <r>  -13.2543    1.0000 </r>
       <r>  -13.2517    1.0000 </r>
       <r>  -13.2517    1.0000 </r>
       <r>  -13.2517    1.0000 </r>
       <r>  -13.2517    1.0000 </r>
       <r>  -13.2517    1.0000 </r>
       <r>  -13.2517    1.0000 </r>
       <r>  -13.2517    1.0000 </r>
       <r>  -13.2517    1.0000 </r>
       <r>  -13.2423    1.0000 </r>
       <r>  -13.2423    1.0000 </r>
       <r>  -13.2423    1.0000 </r>
       <r>  -13.2423    1.0000 </r>
       <r>  -13.2423    1.0000 </r>
       <r>  -13.2423    1.0000 </r>
       <r>  -13.2423    1.0000 </r>
       <r>  -13.2423    1.0000 </r>
       <r>  -13.2413    1.0000 </r>
       <r>  -13.2413    1.0000 </r>
       <r>  -13.2413    1.0000 </r>
       <r>  -13.2413    1.0000 </r>
       <r>  -13.2392    1.0000 </r>
       <r>  -13.2392    1.0000 </r>
       <r>  -13.2392    1.0000 </r>
       <r>  -13.2392    1.0000 </r>
       <r>  -13.2392    1.0000 </r>
       <r>  -13.2392    1.0000 </r>
       <r>  -13.2392    1.0000 </r>
       <r>  -13.2392    1.0000 </r>
       <r>  -11.6289    1.0000 </r>
       <r>  -11.6289    1.0000 </r>
       <r>  -11.6289    1.0000 </r>
       <r>  -11.6289    1.0000 </r>
       <r>  -11.4651    1.0000 </r>
       <r>  -11.4651    1.0000 </r>
       <r>  -11.4651    1.0000 </r>
       <r>  -11.4651    1.0000 </r>
       <r>  -11.4651    1.0000 </r>
       <r>  -11.4651    1.0000 </r>
       <r>  -11.4651    1.0000 </r>
       <r>  -11.4651    1.0000 </r>
       <r>  -11.0685    1.0000 </r>
       <r>  -11.0685    1.0000 </r>
       <r>  -11.0685    1.0000 </r>
       <r>  -11.0685    1.0000 </r>
       <r>  -11.0685    1.0000 </r>
       <r>  -11.0685    1.0000 </r>
       <r>  -11.0685    1.0000 </r>
       <r>  -11.0685    1.0000 </r>
       <r>  -10.6882    1.0000 </r>
       <r>  -10.6882    1.0000 </r>
       <r>  -10.6882    1.0000 </r>
       <r>  -10.6882    1.0000 </r>
       <r>  -10.6882    1.0000 </r>
       <r>  -10.6882    1.0000 </r>
       <r>  -10.6882    1.0000 </r>
       <r>  -10.6882    1.0000 </r>
       <r>  -10.5890    1.0000 </r>
       <r>  -10.5890    1.0000 </r>
       <r>  -10.5890    1.0000 </r>
       <r>  -10.5890    1.0000 </r>
       <r>  -10.5601    1.0000 </r>
       <r>  -10.5601    1.0000 </r>
       <r>  -10.5601    1.0000 </r>
       <r>  -10.5601    1.0000 </r>
       <r>  -10.5601    1.0000 </r>
       <r>  -10.5601    1.0000 </r>
       <r>  -10.5601    1.0000 </r>
       <r>  -10.5601    1.0000 </r>
       <r>  -10.5518    1.0000 </r>
       <r>  -10.5518    1.0000 </r>
       <r>  -10.5518    1.0000 </r>
       <r>  -10.5518    1.0000 </r>
       <r>  -10.5518    1.0000 </r>
       <r>  -10.5518    1.0000 </r>
       <r>  -10.5518    1.0000 </r>
       <r>  -10.5518    1.0000 </r>
       <r>  -10.5357    1.0000 </r>
       <r>  -10.5357    1.0000 </r>
       <r>  -10.5357    1.0000 </r>
       <r>  -10.5357    1.0000 </r>
       <r>  -10.4949    1.0000 </r>
       <r>  -10.4949    1.0000 </r>
       <r>  -10.4949    1.0000 </r>
       <r>  -10.4949    1.0000 </r>
       <r>  -10.4949    1.0000 </r>
       <r>  -10.4949    1.0000 </r>
       <r>  -10.4949    1.0000 </r>
       <r>  -10.4949    1.0000 </r>
       <r>  -10.3896    1.0000 </r>
       <r>  -10.3896    1.0000 </r>
       <r>  -10.3896    1.0000 </r>
       <r>  -10.3896    1.0000 </r>
       <r>   -3.7278    1.0000 </r>
       <r>   -3.7278    1.0000 </r>
       <r>   -3.7278    1.0000 </r>
       <r>   -3.7278    1.0000 </r>
       <r>   -3.5954    1.0000 </r>
       <r>   -3.5954    1.0000 </r>
       <r>   -3.5954    1.0000 </r>
       <r>   -3.5954    1.0000 </r>
       <r>   -3.5954    1.0000 </r>
       <r>   -3.5954    1.0000 </r>
       <r>   -3.5954    1.0000 </r>
       <r>   -3.5954    1.0000 </r>
       <r>   -3.2862    1.0000 </r>
       <r>   -3.2862    1.0000 </r>
       <r>   -3.2862    1.0000 </r>
       <r>   -3.2862    1.0000 </r>
       <r>   -3.2862    1.0000 </r>
       <r>   -3.2862    1.0000 </r>
       <r>   -3.2862    1.0000 </r>
       <r>   -3.2862    1.0000 </r>
       <r>   -3.0791    1.0000 </r>
       <r>   -3.0791    1.0000 </r>
       <r>   -3.0791    1.0000 </r>
       <r>   -3.0791    1.0000 </r>
       <r>   -3.0791    1.0000 </r>
       <r>   -3.0791    1.0000 </r>
       <r>   -3.0791    1.0000 </r>
       <r>   -3.0791    1.0000 </r>
       <r>   -3.0717    1.0000 </r>
       <r>   -3.0717    1.0000 </r>
       <r>   -3.0717    1.0000 </r>
       <r>   -3.0717    1.0000 </r>
       <r>   -1.9806    1.0000 </r>
       <r>   -1.9806    1.0000 </r>
       <r>   -1.9806    1.0000 </r>
       <r>   -1.9806    1.0000 </r>
       <r>   -1.9806    1.0000 </r>
       <r>   -1.9806    1.0000 </r>
       <r>   -1.9806    1.0000 </r>
       <r>   -1.9806    1.0000 </r>
       <r>   -1.9309    1.0000 </r>
       <r>   -1.9309    1.0000 </r>
       <r>   -1.9309    1.0000 </r>
       <r>   -1.9309    1.0000 </r>
       <r>   -1.7390    1.0000 </r>
       <r>   -1.7390    1.0000 </r>
       <r>   -1.7390    1.0000 </r>
       <r>   -1.7390    1.0000 </r>
       <r>   -1.7390    1.0000 </r>
       <r>   -1.7390    1.0000 </r>
       <r>   -1.7390    1.0000 </r>
       <r>   -1.7390    1.0000 </r>
       <r>   -1.3855    1.0000 </r>
       <r>   -1.3855    1.0000 </r>
       <r>   -1.3855    1.0000 </r>
       <r>   -1.3855    1.0000 </r>
       <r>   -1.3855    1.0000 </r>
       <r>   -1.3855    1.0000 </r>
       <r>   -1.3855    1.0000 </r>
       <r>   -1.3855    1.0000 </r>
       <r>   -1.3435    1.0000 </r>
       <r>   -1.3435    1.0000 </r>
       <r>   -1.3435    1.0000 </r>
       <r>   -1.3435    1.0000 </r>
       <r>   -1.3143    1.0000 </r>
       <r>   -1.3143    1.0000 </r>
       <r>   -1.3143    1.0000 </r>
       <r>   -1.3143    1.0000 </r>
       <r>   -0.8605    1.0000 </r>
       <r>   -0.8605    1.0000 </r>
       <r>   -0.8605    1.0000 </r>
       <r>   -0.8605    1.0000 </r>
       <r>   -0.8605    1.0000 </r>
       <r>   -0.8605    1.0000 </r>
       <r>   -0.8605    1.0000 </r>
       <r>   -0.8605    1.0000 </r>
       <r>   -0.8576    1.0000 </r>
       <r>   -0.8576    1.0000 </r>
       <r>   -0.8576    1.0000 </r>
       <r>   -0.8576    1.0000 </r>
       <r>   -0.8576    1.0000 </r>
       <r>   -0.8576    1.0000 </r>
       <r>   -0.8576    1.0000 </r>
       <r>   -0.8576    1.0000 </r>
       <r>   -0.8009    1.0000 </r>
       <r>   -0.8009    1.0000 </r>
       <r>   -0.8009    1.0000 </r>
       <r>   -0.8009    1.0000 </r>
       <r>   -0.7103    1.0000 </r>
       <r>   -0.7103    1.0000 </r>
       <r>   -0.7103    1.0000 </r>
       <r>   -0.7103    1.0000 </r>
       <r>   -0.7103    1.0000 </r>
       <r>   -0.7103    1.0000 </r>
       <r>   -0.7103    1.0000 </r>
       <r>   -0.7103    1.0000 </r>
       <r>   -0.6937    1.0000 </r>
       <r>   -0.6937    1.0000 </r>
       <r>   -0.6937    1.0000 </r>
       <r>   -0.6937    1.0000 </r>
       <r>   -0.6937    1.0000 </r>
       <r>   -0.6937    1.0000 </r>
       <r>   -0.6937    1.0000 </r>
       <r>   -0.6937    1.0000 </r>
       <r>   -0.5689    1.0000 </r>
       <r>   -0.5689    1.0000 </r>
       <r>   -0.5689    1.0000 </r>
       <r>   -0.5688    1.0000 </r>
       <r>   -0.4864    1.0000 </r>
       <r>   -0.4864    1.0000 </r>
       <r>   -0.4864    1.0000 </r>
       <r>   -0.4864    1.0000 </r>
       <r>   -0.4864    1.0000 </r>
       <r>   -0.4864    1.0000 </r>
       <r>   -0.4864    1.0000 </r>
       <r>   -0.4864    1.0000 </r>
       <r>   -0.4235    1.0000 </r>
       <r>   -0.4235    1.0000 </r>
       <r>   -0.4235    1.0000 </r>
       <r>   -0.4235    1.0000 </r>
       <r>   -0.4235    1.0000 </r>
       <r>   -0.4235    1.0000 </r>
       <r>   -0.4235    1.0000 </r>
       <r>   -0.4235    1.0000 </r>
       <r>   -0.4095    1.0000 </r>
       <r>   -0.4095    1.0000 </r>
       <r>   -0.4095    1.0000 </r>
       <r>   -0.4095    1.0000 </r>
       <r>   -0.3982    1.0000 </r>
       <r>   -0.3982    1.0000 </r>
       <r>   -0.3982    1.0000 </r>
       <r>   -0.3982    1.0000 </r>
       <r>   -0.2968    1.0000 </r>
       <r>   -0.2968    1.0000 </r>
       <r>   -0.2968    1.0000 </r>
       <r>   -0.2968    1.0000 </r>
       <r>   -0.2968    1.0000 </r>
       <r>   -0.2968    1.0000 </r>
       <r>   -0.2968    1.0000 </r>
       <r>   -0.2968    1.0000 </r>
       <r>   -0.2904    1.0000 </r>
       <r>   -0.2904    1.0000 </r>
       <r>   -0.2904    1.0000 </r>
       <r>   -0.2904    1.0000 </r>
       <r>   -0.2904    1.0000 </r>
       <r>   -0.2904    1.0000 </r>
       <r>   -0.2904    1.0000 </r>
       <r>   -0.2904    1.0000 </r>
       <r>   -0.2120    1.0000 </r>
       <r>   -0.2120    1.0000 </r>
       <r>   -0.2120    1.0000 </r>
       <r>   -0.2120    1.0000 </r>
       <r>   -0.2120    1.0000 </r>
       <r>   -0.2120    1.0000 </r>
       <r>   -0.2120    1.0000 </r>
       <r>   -0.2120    1.0000 </r>
       <r>   -0.1911    1.0000 </r>
       <r>   -0.1911    1.0000 </r>
       <r>   -0.1911    1.0000 </r>
       <r>   -0.1911    1.0000 </r>
       <r>   -0.0520    1.0000 </r>
       <r>   -0.0520    1.0000 </r>
       <r>   -0.0520    1.0000 </r>
       <r>   -0.0520    1.0000 </r>
       <r>   -0.0383    1.0000 </r>
       <r>   -0.0383    1.0000 </r>
       <r>   -0.0383    1.0000 </r>
       <r>   -0.0383    1.0000 </r>
       <r>   -0.0383    1.0000 </r>
       <r>   -0.0383    1.0000 </r>
       <r>   -0.0383    1.0000 </r>
       <r>   -0.0383    1.0000 </r>
       <r>   -0.0362    1.0000 </r>
       <r>   -0.0362    1.0000 </r>
       <r>   -0.0362    1.0000 </r>
       <r>   -0.0362    1.0000 </r>
       <r>   -0.0362    1.0000 </r>
       <r>   -0.0362    1.0000 </r>
       <r>   -0.0362    1.0000 </r>
       <r>   -0.0362    1.0000 </r>
       <r>    0.0619    1.0000 </r>
       <r>    0.0619    1.0000 </r>
       <r>    0.0619    1.0000 </r>
       <r>    0.0619    1.0000 </r>
       <r>    0.0619    1.0000 </r>
       <r>    0.0619    1.0000 </r>
       <r>    0.0619    1.0000 </r>
       <r>    0.0619    1.0000 </r>
       <r>    0.2015    1.0000 </r>
       <r>    0.2015    1.0000 </r>
       <r>    0.2015    1.0000 </r>
       <r>    0.2015    1.0000 </r>
       <r>    0.7576    1.0000 </r>
       <r>    0.7576    1.0000 </r>
       <r>    0.7576    1.0000 </r>
       <r>    0.7576    1.0000 </r>
       <r>    0.7598    1.0000 </r>
       <r>    0.7598    1.0000 </r>
       <r>    0.7598    1.0000 </r>
       <r>    0.7598    1.0000 </r>
       <r>    0.7598    1.0000 </r>
       <r>    0.7598    1.0000 </r>
       <r>    0.7598    1.0000 </r>
       <r>    0.7598    1.0000 </r>
       <r>    0.8115    1.0000 </r>
       <r>    0.8115    1.0000 </r>
       <r>    0.8115    1.0000 </r>
       <r>    0.8115    1.0000 </r>
       <r>    0.8115    1.0000 </r>
       <r>    0.8115    1.0000 </r>
       <r>    0.8115    1.0000 </r>
       <r>    0.8115    1.0000 </r>
       <r>    0.8640    1.0000 </r>
       <r>    0.8640    1.0000 </r>
       <r>    0.8640    1.0000 </r>
       <r>    0.8640    1.0000 </r>
       <r>    0.8640    1.0000 </r>
       <r>    0.8640    1.0000 </r>
       <r>    0.8640    1.0000 </r>
       <r>    0.8640    1.0000 </r>
       <r>    0.8744    1.0000 </r>
       <r>    0.8744    1.0000 </r>
       <r>    0.8744    1.0000 </r>
       <r>    0.8744    1.0000 </r>
       <r>    0.9608    1.0000 </r>
       <r>    0.9608    1.0000 </r>
       <r>    0.9608    1.0000 </r>
       <r>    0.9608    1.0000 </r>
       <r>    0.9811    1.0000 </r>
       <r>    0.9811    1.0000 </r>
       <r>    0.9811    1.0000 </r>
       <r>    0.9811    1.0000 </r>
       <r>    0.9811    1.0000 </r>
       <r>    0.9811    1.0000 </r>
       <r>    0.9811    1.0000 </r>
       <r>    0.9811    1.0000 </r>
       <r>    1.0203    1.0000 </r>
       <r>    1.0203    1.0000 </r>
       <r>    1.0203    1.0000 </r>
       <r>    1.0203    1.0000 </r>
       <r>    1.0203    1.0000 </r>
       <r>    1.0203    1.0000 </r>
       <r>    1.0203    1.0000 </r>
       <r>    1.0203    1.0000 </r>
       <r>    1.0320    1.0000 </r>
       <r>    1.0320    1.0000 </r>
       <r>    1.0320    1.0000 </r>
       <r>    1.0320    1.0000 </r>
       <r>    1.0514    1.0000 </r>
       <r>    1.0514    1.0000 </r>
       <r>    1.0514    1.0000 </r>
       <r>    1.0514    1.0000 </r>
       <r>    1.0514    1.0000 </r>
       <r>    1.0514    1.0000 </r>
       <r>    1.0514    1.0000 </r>
       <r>    1.0514    1.0000 </r>
       <r>    1.2733    1.0000 </r>
       <r>    1.2733    1.0000 </r>
       <r>    1.2733    1.0000 </r>
       <r>    1.2733    1.0000 </r>
       <r>    1.2800    1.0000 </r>
       <r>    1.2800    1.0000 </r>
       <r>    1.2800    1.0000 </r>
       <r>    1.2800    1.0000 </r>
       <r>    1.2800    1.0000 </r>
       <r>    1.2800    1.0000 </r>
       <r>    1.2800    1.0000 </r>
       <r>    1.2800    1.0000 </r>
       <r>    1.3786    1.0000 </r>
       <r>    1.3786    1.0000 </r>
       <r>    1.3786    1.0000 </r>
       <r>    1.3786    1.0000 </r>
       <r>    1.3786    1.0000 </r>
       <r>    1.3786    1.0000 </r>
       <r>    1.3786    1.0000 </r>
       <r>    1.3786    1.0000 </r>
       <r>    1.4684    1.0000 </r>
       <r>    1.4684    1.0000 </r>
       <r>    1.4684    1.0000 </r>
       <r>    1.4684    1.0000 </r>
       <r>    1.4684    1.0000 </r>
       <r>    1.4684    1.0000 </r>
       <r>    1.4684    1.0000 </r>
       <r>    1.4684    1.0000 </r>
       <r>    1.6025    1.0000 </r>
       <r>    1.6025    1.0000 </r>
       <r>    1.6025    1.0000 </r>
       <r>    1.6025    1.0000 </r>
       <r>    1.6025    1.0000 </r>
       <r>    1.6025    1.0000 </r>
       <r>    1.6025    1.0000 </r>
       <r>    1.6025    1.0000 </r>
       <r>    1.6437    1.0000 </r>
       <r>    1.6437    1.0000 </r>
       <r>    1.6437    1.0000 </r>
       <r>    1.6437    1.0000 </r>
       <r>    1.6676    1.0000 </r>
       <r>    1.6676    1.0000 </r>
       <r>    1.6676    1.0000 </r>
       <r>    1.6676    1.0000 </r>
       <r>    1.7264    1.0000 </r>
       <r>    1.7264    1.0000 </r>
       <r>    1.7264    1.0000 </r>
       <r>    1.7264    1.0000 </r>
       <r>    1.8936    1.0000 </r>
       <r>    1.8936    1.0000 </r>
       <r>    1.8936    1.0000 </r>
       <r>    1.8936    1.0000 </r>
       <r>    1.8936    1.0000 </r>
       <r>    1.8936    1.0000 </r>
       <r>    1.8936    1.0000 </r>
       <r>    1.8936    1.0000 </r>
       <r>    2.1009    1.0000 </r>
       <r>    2.1009    1.0000 </r>
       <r>    2.1009    1.0000 </r>
       <r>    2.1009    1.0000 </r>
       <r>    2.1009    1.0000 </r>
       <r>    2.1009    1.0000 </r>
       <r>    2.1009    1.0000 </r>
       <r>    2.1009    1.0000 </r>
       <r>    2.1965    1.0000 </r>
       <r>    2.1965    1.0000 </r>
       <r>    2.1965    1.0000 </r>
       <r>    2.1965    1.0000 </r>
       <r>    2.1965    1.0000 </r>
       <r>    2.1965    1.0000 </r>
       <r>    2.1965    1.0000 </r>
       <r>    2.1965    1.0000 </r>
       <r>    2.4528    1.0000 </r>
       <r>    2.4528    1.0000 </r>
       <r>    2.4528    1.0000 </r>
       <r>    2.4528    1.0000 </r>
       <r>    2.6756    1.0000 </r>
       <r>    2.6756    1.0000 </r>
       <r>    2.6756    1.0000 </r>
       <r>    2.6756    1.0000 </r>
       <r>    2.6756    1.0000 </r>
       <r>    2.6756    1.0000 </r>
       <r>    2.6756    1.0000 </r>
       <r>    2.6756    1.0000 </r>
       <r>    2.6970    1.0000 </r>
       <r>    2.6970    1.0000 </r>
       <r>    2.6970    1.0000 </r>
       <r>    2.6970    1.0000 </r>
       <r>    2.6970    1.0000 </r>
       <r>    2.6970    1.0000 </r>
       <r>    2.6970    1.0000 </r>
       <r>    2.6970    1.0000 </r>
       <r>    2.9364    1.0000 </r>
       <r>    2.9364    1.0000 </r>
       <r>    2.9365    1.0000 </r>
       <r>    2.9365    1.0000 </r>
       <r>    5.5666    0.0000 </r>
       <r>    5.5666    0.0000 </r>
       <r>    5.5667    0.0000 </r>
       <r>    5.5667    0.0000 </r>
       <r>    5.5667    0.0000 </r>
       <r>    5.5667    0.0000 </r>
       <r>    5.5667    0.0000 </r>
       <r>    5.5667    0.0000 </r>
       <r>    5.7657    0.0000 </r>
       <r>    5.7657    0.0000 </r>
       <r>    5.7657    0.0000 </r>
       <r>    5.7657    0.0000 </r>
       <r>    6.1764    0.0000 </r>
       <r>    6.1764    0.0000 </r>
       <r>    6.1764    0.0000 </r>
       <r>    6.1764    0.0000 </r>
       <r>    6.1764    0.0000 </r>
       <r>    6.1764    0.0000 </r>
       <r>    6.1764    0.0000 </r>
       <r>    6.1764    0.0000 </r>
       <r>    6.4450    0.0000 </r>
       <r>    6.4450    0.0000 </r>
       <r>    6.4450    0.0000 </r>
       <r>    6.4450    0.0000 </r>
       <r>    6.4450    0.0000 </r>
       <r>    6.4450    0.0000 </r>
       <r>    6.4450    0.0000 </r>
       <r>    6.4450    0.0000 </r>
       <r>    6.5382    0.0000 </r>
       <r>    6.5382    0.0000 </r>
       <r>    6.5382    0.0000 </r>
       <r>    6.5382    0.0000 </r>
       <r>    7.0604    0.0000 </r>
       <r>    7.0604    0.0000 </r>
       <r>    7.0604    0.0000 </r>
       <r>    7.0604    0.0000 </r>
       <r>    7.0604    0.0000 </r>
       <r>    7.0604    0.0000 </r>
       <r>    7.0604    0.0000 </r>
       <r>    7.0604    0.0000 </r>
       <r>    7.1628    0.0000 </r>
       <r>    7.1628    0.0000 </r>
       <r>    7.1628    0.0000 </r>
       <r>    7.1628    0.0000 </r>
       <r>    7.1628    0.0000 </r>
       <r>    7.1628    0.0000 </r>
       <r>    7.1628    0.0000 </r>
       <r>    7.1628    0.0000 </r>
       <r>    7.2738    0.0000 </r>
       <r>    7.2738    0.0000 </r>
       <r>    7.2738    0.0000 </r>
       <r>    7.2738    0.0000 </r>
       <r>    7.2738    0.0000 </r>
       <r>    7.2738    0.0000 </r>
       <r>    7.2738    0.0000 </r>
       <r>    7.2738    0.0000 </r>
       <r>    7.3926    0.0000 </r>
       <r>    7.3926    0.0000 </r>
       <r>    7.3926    0.0000 </r>
       <r>    7.3926    0.0000 </r>
       <r>    7.7598    0.0000 </r>
       <r>    7.7598    0.0000 </r>
       <r>    7.7598    0.0000 </r>
       <r>    7.7598    0.0000 </r>
       <r>    8.1290    0.0000 </r>
       <r>    8.1290    0.0000 </r>
       <r>    8.1290    0.0000 </r>
       <r>    8.1290    0.0000 </r>
       <r>    8.1290    0.0000 </r>
       <r>    8.1290    0.0000 </r>
       <r>    8.1290    0.0000 </r>
       <r>    8.1290    0.0000 </r>
       <r>    8.2085    0.0000 </r>
       <r>    8.2085    0.0000 </r>
       <r>    8.2085    0.0000 </r>
       <r>    8.2085    0.0000 </r>
       <r>    8.2085    0.0000 </r>
       <r>    8.2085    0.0000 </r>
       <r>    8.2085    0.0000 </r>
       <r>    8.2085    0.0000 </r>
       <r>    8.3674    0.0000 </r>
       <r>    8.3674    0.0000 </r>
       <r>    8.3674    0.0000 </r>
       <r>    8.3674    0.0000 </r>
       <r>    8.5320    0.0000 </r>
       <r>    8.5320    0.0000 </r>
       <r>    8.5320    0.0000 </r>
       <r>    8.5320    0.0000 </r>
       <r>    8.9031    0.0000 </r>
       <r>    8.9031    0.0000 </r>
       <r>    8.9031    0.0000 </r>
       <r>    8.9031    0.0000 </r>
       <r>    8.9166    0.0000 </r>
       <r>    8.9166    0.0000 </r>
       <r>    8.9166    0.0000 </r>
       <r>    8.9166    0.0000 </r>
       <r>    8.9166    0.0000 </r>
       <r>    8.9166    0.0000 </r>
       <r>    8.9166    0.0000 </r>
       <r>    8.9166    0.0000 </r>
       <r>    9.1178    0.0000 </r>
       <r>    9.1178    0.0000 </r>
       <r>    9.1178    0.0000 </r>
       <r>    9.1178    0.0000 </r>
       <r>    9.1178    0.0000 </r>
       <r>    9.1178    0.0000 </r>
       <r>    9.1178    0.0000 </r>
       <r>    9.1178    0.0000 </r>
       <r>    9.4109    0.0000 </r>
       <r>    9.4115    0.0000 </r>
       <r>    9.4122    0.0000 </r>
       <r>    9.4144    0.0000 </r>
       <r>    9.5956    0.0000 </r>
       <r>    9.6013    0.0000 </r>
       <r>    9.6100    0.0000 </r>
      </set>
      <set comment="kpoint 4">
       <r>  -13.6594    1.0000 </r>
       <r>  -13.6594    1.0000 </r>
       <r>  -13.6594    1.0000 </r>
       <r>  -13.6594    1.0000 </r>
       <r>  -13.6594    1.0000 </r>
       <r>  -13.6594    1.0000 </r>
       <r>  -13.6594    1.0000 </r>
       <r>  -13.6594    1.0000 </r>
       <r>  -13.6557    1.0000 </r>
       <r>  -13.6557    1.0000 </r>
       <r>  -13.6557    1.0000 </r>
       <r>  -13.6557    1.0000 </r>
       <r>  -13.6557    1.0000 </r>
       <r>  -13.6557    1.0000 </r>
       <r>  -13.6557    1.0000 </r>
       <r>  -13.6557    1.0000 </r>
       <r>  -13.6431    1.0000 </r>
       <r>  -13.6431    1.0000 </r>
       <r>  -13.6431    1.0000 </r>
       <r>  -13.6431    1.0000 </r>
       <r>  -13.6380    1.0000 </r>
       <r>  -13.6380    1.0000 </r>
       <r>  -13.6380    1.0000 </r>
       <r>  -13.6380    1.0000 </r>
       <r>  -13.6380    1.0000 </r>
       <r>  -13.6380    1.0000 </r>
       <r>  -13.6380    1.0000 </r>
       <r>  -13.6380    1.0000 </r>
       <r>  -13.6353    1.0000 </r>
       <r>  -13.6353    1.0000 </r>
       <r>  -13.6353    1.0000 </r>
       <r>  -13.6353    1.0000 </r>
       <r>  -13.6280    1.0000 </r>
       <r>  -13.6280    1.0000 </r>
       <r>  -13.5875    1.0000 </r>
       <r>  -13.5875    1.0000 </r>
       <r>  -13.5875    1.0000 </r>
       <r>  -13.5875    1.0000 </r>
       <r>  -13.5875    1.0000 </r>
       <r>  -13.5875    1.0000 </r>
       <r>  -13.5875    1.0000 </r>
       <r>  -13.5875    1.0000 </r>
       <r>  -13.5768    1.0000 </r>
       <r>  -13.5768    1.0000 </r>
       <r>  -13.5214    1.0000 </r>
       <r>  -13.5214    1.0000 </r>
       <r>  -13.5214    1.0000 </r>
       <r>  -13.5214    1.0000 </r>
       <r>  -13.5214    1.0000 </r>
       <r>  -13.5214    1.0000 </r>
       <r>  -13.5214    1.0000 </r>
       <r>  -13.5214    1.0000 </r>
       <r>  -13.4860    1.0000 </r>
       <r>  -13.4860    1.0000 </r>
       <r>  -13.4537    1.0000 </r>
       <r>  -13.4537    1.0000 </r>
       <r>  -13.4537    1.0000 </r>
       <r>  -13.4537    1.0000 </r>
       <r>  -13.4537    1.0000 </r>
       <r>  -13.4537    1.0000 </r>
       <r>  -13.4536    1.0000 </r>
       <r>  -13.4536    1.0000 </r>
       <r>  -13.3986    1.0000 </r>
       <r>  -13.3986    1.0000 </r>
       <r>  -13.3785    1.0000 </r>
       <r>  -13.3785    1.0000 </r>
       <r>  -13.3785    1.0000 </r>
       <r>  -13.3785    1.0000 </r>
       <r>  -13.3785    1.0000 </r>
       <r>  -13.3785    1.0000 </r>
       <r>  -13.3785    1.0000 </r>
       <r>  -13.3785    1.0000 </r>
       <r>  -13.3745    1.0000 </r>
       <r>  -13.3745    1.0000 </r>
       <r>  -13.3745    1.0000 </r>
       <r>  -13.3745    1.0000 </r>
       <r>  -13.3745    1.0000 </r>
       <r>  -13.3745    1.0000 </r>
       <r>  -13.3745    1.0000 </r>
       <r>  -13.3745    1.0000 </r>
       <r>  -13.3569    1.0000 </r>
       <r>  -13.3569    1.0000 </r>
       <r>  -13.3569    1.0000 </r>
       <r>  -13.3569    1.0000 </r>
       <r>  -13.3493    1.0000 </r>
       <r>  -13.3493    1.0000 </r>
       <r>  -13.3493    1.0000 </r>
       <r>  -13.3493    1.0000 </r>
       <r>  -13.3493    1.0000 </r>
       <r>  -13.3493    1.0000 </r>
       <r>  -13.3493    1.0000 </r>
       <r>  -13.3493    1.0000 </r>
       <r>  -13.3433    1.0000 </r>
       <r>  -13.3433    1.0000 </r>
       <r>  -13.3433    1.0000 </r>
       <r>  -13.3433    1.0000 </r>
       <r>  -13.2810    1.0000 </r>
       <r>  -13.2810    1.0000 </r>
       <r>  -13.2765    1.0000 </r>
       <r>  -13.2765    1.0000 </r>
       <r>  -13.2734    1.0000 </r>
       <r>  -13.2733    1.0000 </r>
       <r>  -13.2692    1.0000 </r>
       <r>  -13.2692    1.0000 </r>
       <r>  -13.2692    1.0000 </r>
       <r>  -13.2692    1.0000 </r>
       <r>  -13.2692    1.0000 </r>
       <r>  -13.2692    1.0000 </r>
       <r>  -13.2692    1.0000 </r>
       <r>  -13.2692    1.0000 </r>
       <r>  -13.2672    1.0000 </r>
       <r>  -13.2672    1.0000 </r>
       <r>  -13.2672    1.0000 </r>
       <r>  -13.2672    1.0000 </r>
       <r>  -13.2672    1.0000 </r>
       <r>  -13.2672    1.0000 </r>
       <r>  -13.2672    1.0000 </r>
       <r>  -13.2671    1.0000 </r>
       <r>  -13.2612    1.0000 </r>
       <r>  -13.2612    1.0000 </r>
       <r>  -13.2587    1.0000 </r>
       <r>  -13.2587    1.0000 </r>
       <r>  -13.2567    1.0000 </r>
       <r>  -13.2567    1.0000 </r>
       <r>  -13.2567    1.0000 </r>
       <r>  -13.2567    1.0000 </r>
       <r>  -13.2567    1.0000 </r>
       <r>  -13.2567    1.0000 </r>
       <r>  -13.2567    1.0000 </r>
       <r>  -13.2567    1.0000 </r>
       <r>  -13.2508    1.0000 </r>
       <r>  -13.2508    1.0000 </r>
       <r>  -13.2507    1.0000 </r>
       <r>  -13.2507    1.0000 </r>
       <r>  -13.2507    1.0000 </r>
       <r>  -13.2507    1.0000 </r>
       <r>  -13.2507    1.0000 </r>
       <r>  -13.2507    1.0000 </r>
       <r>  -13.2477    1.0000 </r>
       <r>  -13.2477    1.0000 </r>
       <r>  -13.2477    1.0000 </r>
       <r>  -13.2477    1.0000 </r>
       <r>  -13.2477    1.0000 </r>
       <r>  -13.2477    1.0000 </r>
       <r>  -13.2477    1.0000 </r>
       <r>  -13.2477    1.0000 </r>
       <r>  -13.2451    1.0000 </r>
       <r>  -13.2451    1.0000 </r>
       <r>  -13.2412    1.0000 </r>
       <r>  -13.2412    1.0000 </r>
       <r>  -13.2412    1.0000 </r>
       <r>  -13.2412    1.0000 </r>
       <r>  -13.2412    1.0000 </r>
       <r>  -13.2412    1.0000 </r>
       <r>  -13.2412    1.0000 </r>
       <r>  -13.2412    1.0000 </r>
       <r>  -13.2367    1.0000 </r>
       <r>  -13.2367    1.0000 </r>
       <r>  -13.2356    1.0000 </r>
       <r>  -13.2356    1.0000 </r>
       <r>  -11.9332    1.0000 </r>
       <r>  -11.9332    1.0000 </r>
       <r>  -11.5369    1.0000 </r>
       <r>  -11.5369    1.0000 </r>
       <r>  -11.3376    1.0000 </r>
       <r>  -11.3376    1.0000 </r>
       <r>  -11.3376    1.0000 </r>
       <r>  -11.3376    1.0000 </r>
       <r>  -11.3376    1.0000 </r>
       <r>  -11.3376    1.0000 </r>
       <r>  -11.3376    1.0000 </r>
       <r>  -11.3376    1.0000 </r>
       <r>  -10.9703    1.0000 </r>
       <r>  -10.9703    1.0000 </r>
       <r>  -10.9703    1.0000 </r>
       <r>  -10.9703    1.0000 </r>
       <r>  -10.9703    1.0000 </r>
       <r>  -10.9703    1.0000 </r>
       <r>  -10.9703    1.0000 </r>
       <r>  -10.9703    1.0000 </r>
       <r>  -10.9401    1.0000 </r>
       <r>  -10.9401    1.0000 </r>
       <r>  -10.8942    1.0000 </r>
       <r>  -10.8942    1.0000 </r>
       <r>  -10.8942    1.0000 </r>
       <r>  -10.8942    1.0000 </r>
       <r>  -10.8942    1.0000 </r>
       <r>  -10.8942    1.0000 </r>
       <r>  -10.8942    1.0000 </r>
       <r>  -10.8942    1.0000 </r>
       <r>  -10.6089    1.0000 </r>
       <r>  -10.6089    1.0000 </r>
       <r>  -10.6089    1.0000 </r>
       <r>  -10.6089    1.0000 </r>
       <r>  -10.6089    1.0000 </r>
       <r>  -10.6089    1.0000 </r>
       <r>  -10.6089    1.0000 </r>
       <r>  -10.6089    1.0000 </r>
       <r>  -10.6036    1.0000 </r>
       <r>  -10.6036    1.0000 </r>
       <r>  -10.6036    1.0000 </r>
       <r>  -10.6036    1.0000 </r>
       <r>  -10.6035    1.0000 </r>
       <r>  -10.6035    1.0000 </r>
       <r>  -10.6035    1.0000 </r>
       <r>  -10.6035    1.0000 </r>
       <r>  -10.4575    1.0000 </r>
       <r>  -10.4575    1.0000 </r>
       <r>  -10.3888    1.0000 </r>
       <r>  -10.3888    1.0000 </r>
       <r>  -10.3888    1.0000 </r>
       <r>  -10.3888    1.0000 </r>
       <r>  -10.3888    1.0000 </r>
       <r>  -10.3888    1.0000 </r>
       <r>  -10.3888    1.0000 </r>
       <r>  -10.3888    1.0000 </r>
       <r>  -10.3886    1.0000 </r>
       <r>  -10.3886    1.0000 </r>
       <r>  -10.3885    1.0000 </r>
       <r>  -10.3885    1.0000 </r>
       <r>  -10.3683    1.0000 </r>
       <r>  -10.3683    1.0000 </r>
       <r>  -10.3683    1.0000 </r>
       <r>  -10.3683    1.0000 </r>
       <r>   -3.8638    1.0000 </r>
       <r>   -3.8638    1.0000 </r>
       <r>   -3.5742    1.0000 </r>
       <r>   -3.5742    1.0000 </r>
       <r>   -3.5742    1.0000 </r>
       <r>   -3.5742    1.0000 </r>
       <r>   -3.5741    1.0000 </r>
       <r>   -3.5741    1.0000 </r>
       <r>   -3.5741    1.0000 </r>
       <r>   -3.5741    1.0000 </r>
       <r>   -3.5598    1.0000 </r>
       <r>   -3.5598    1.0000 </r>
       <r>   -3.4588    1.0000 </r>
       <r>   -3.4588    1.0000 </r>
       <r>   -3.4588    1.0000 </r>
       <r>   -3.4588    1.0000 </r>
       <r>   -3.4588    1.0000 </r>
       <r>   -3.4588    1.0000 </r>
       <r>   -3.4588    1.0000 </r>
       <r>   -3.4588    1.0000 </r>
       <r>   -3.2233    1.0000 </r>
       <r>   -3.2233    1.0000 </r>
       <r>   -2.8865    1.0000 </r>
       <r>   -2.8865    1.0000 </r>
       <r>   -2.8865    1.0000 </r>
       <r>   -2.8865    1.0000 </r>
       <r>   -2.8865    1.0000 </r>
       <r>   -2.8865    1.0000 </r>
       <r>   -2.8865    1.0000 </r>
       <r>   -2.8865    1.0000 </r>
       <r>   -2.8472    1.0000 </r>
       <r>   -2.8472    1.0000 </r>
       <r>   -2.1510    1.0000 </r>
       <r>   -2.1510    1.0000 </r>
       <r>   -2.1510    1.0000 </r>
       <r>   -2.1510    1.0000 </r>
       <r>   -2.1510    1.0000 </r>
       <r>   -2.1510    1.0000 </r>
       <r>   -2.1510    1.0000 </r>
       <r>   -2.1510    1.0000 </r>
       <r>   -1.7083    1.0000 </r>
       <r>   -1.7083    1.0000 </r>
       <r>   -1.7083    1.0000 </r>
       <r>   -1.7083    1.0000 </r>
       <r>   -1.7083    1.0000 </r>
       <r>   -1.7083    1.0000 </r>
       <r>   -1.7083    1.0000 </r>
       <r>   -1.7083    1.0000 </r>
       <r>   -1.6883    1.0000 </r>
       <r>   -1.6883    1.0000 </r>
       <r>   -1.5066    1.0000 </r>
       <r>   -1.5066    1.0000 </r>
       <r>   -1.3834    1.0000 </r>
       <r>   -1.3834    1.0000 </r>
       <r>   -1.3834    1.0000 </r>
       <r>   -1.3834    1.0000 </r>
       <r>   -1.3834    1.0000 </r>
       <r>   -1.3834    1.0000 </r>
       <r>   -1.3834    1.0000 </r>
       <r>   -1.3834    1.0000 </r>
       <r>   -1.2330    1.0000 </r>
       <r>   -1.2330    1.0000 </r>
       <r>   -1.2330    1.0000 </r>
       <r>   -1.2330    1.0000 </r>
       <r>   -1.2330    1.0000 </r>
       <r>   -1.2330    1.0000 </r>
       <r>   -1.2330    1.0000 </r>
       <r>   -1.2330    1.0000 </r>
       <r>   -1.1372    1.0000 </r>
       <r>   -1.1372    1.0000 </r>
       <r>   -1.1056    1.0000 </r>
       <r>   -1.1056    1.0000 </r>
       <r>   -0.9669    1.0000 </r>
       <r>   -0.9669    1.0000 </r>
       <r>   -0.8933    1.0000 </r>
       <r>   -0.8933    1.0000 </r>
       <r>   -0.8932    1.0000 </r>
       <r>   -0.8932    1.0000 </r>
       <r>   -0.8932    1.0000 </r>
       <r>   -0.8932    1.0000 </r>
       <r>   -0.8932    1.0000 </r>
       <r>   -0.8932    1.0000 </r>
       <r>   -0.7571    1.0000 </r>
       <r>   -0.7571    1.0000 </r>
       <r>   -0.7571    1.0000 </r>
       <r>   -0.7571    1.0000 </r>
       <r>   -0.7571    1.0000 </r>
       <r>   -0.7571    1.0000 </r>
       <r>   -0.7571    1.0000 </r>
       <r>   -0.7571    1.0000 </r>
       <r>   -0.7292    1.0000 </r>
       <r>   -0.7292    1.0000 </r>
       <r>   -0.7292    1.0000 </r>
       <r>   -0.7292    1.0000 </r>
       <r>   -0.7292    1.0000 </r>
       <r>   -0.7292    1.0000 </r>
       <r>   -0.7292    1.0000 </r>
       <r>   -0.7292    1.0000 </r>
       <r>   -0.6992    1.0000 </r>
       <r>   -0.6992    1.0000 </r>
       <r>   -0.6992    1.0000 </r>
       <r>   -0.6992    1.0000 </r>
       <r>   -0.5974    1.0000 </r>
       <r>   -0.5974    1.0000 </r>
       <r>   -0.5974    1.0000 </r>
       <r>   -0.5974    1.0000 </r>
       <r>   -0.5565    1.0000 </r>
       <r>   -0.5565    1.0000 </r>
       <r>   -0.5160    1.0000 </r>
       <r>   -0.5160    1.0000 </r>
       <r>   -0.5160    1.0000 </r>
       <r>   -0.5160    1.0000 </r>
       <r>   -0.5159    1.0000 </r>
       <r>   -0.5159    1.0000 </r>
       <r>   -0.5159    1.0000 </r>
       <r>   -0.5159    1.0000 </r>
       <r>   -0.4380    1.0000 </r>
       <r>   -0.4380    1.0000 </r>
       <r>   -0.4380    1.0000 </r>
       <r>   -0.4380    1.0000 </r>
       <r>   -0.4380    1.0000 </r>
       <r>   -0.4380    1.0000 </r>
       <r>   -0.4380    1.0000 </r>
       <r>   -0.4380    1.0000 </r>
       <r>   -0.3976    1.0000 </r>
       <r>   -0.3976    1.0000 </r>
       <r>   -0.3976    1.0000 </r>
       <r>   -0.3976    1.0000 </r>
       <r>   -0.3830    1.0000 </r>
       <r>   -0.3830    1.0000 </r>
       <r>   -0.3830    1.0000 </r>
       <r>   -0.3830    1.0000 </r>
       <r>   -0.3830    1.0000 </r>
       <r>   -0.3830    1.0000 </r>
       <r>   -0.3830    1.0000 </r>
       <r>   -0.3830    1.0000 </r>
       <r>   -0.3754    1.0000 </r>
       <r>   -0.3753    1.0000 </r>
       <r>   -0.3753    1.0000 </r>
       <r>   -0.3753    1.0000 </r>
       <r>   -0.2673    1.0000 </r>
       <r>   -0.2673    1.0000 </r>
       <r>   -0.2300    1.0000 </r>
       <r>   -0.2300    1.0000 </r>
       <r>   -0.2300    1.0000 </r>
       <r>   -0.2300    1.0000 </r>
       <r>   -0.2300    1.0000 </r>
       <r>   -0.2300    1.0000 </r>
       <r>   -0.2300    1.0000 </r>
       <r>   -0.2300    1.0000 </r>
       <r>   -0.2015    1.0000 </r>
       <r>   -0.2015    1.0000 </r>
       <r>   -0.1996    1.0000 </r>
       <r>   -0.1995    1.0000 </r>
       <r>   -0.1995    1.0000 </r>
       <r>   -0.1995    1.0000 </r>
       <r>   -0.1766    1.0000 </r>
       <r>   -0.1766    1.0000 </r>
       <r>   -0.1766    1.0000 </r>
       <r>   -0.1766    1.0000 </r>
       <r>   -0.1766    1.0000 </r>
       <r>   -0.1766    1.0000 </r>
       <r>   -0.1766    1.0000 </r>
       <r>   -0.1766    1.0000 </r>
       <r>   -0.0982    1.0000 </r>
       <r>   -0.0982    1.0000 </r>
       <r>   -0.0982    1.0000 </r>
       <r>   -0.0982    1.0000 </r>
       <r>   -0.0277    1.0000 </r>
       <r>   -0.0277    1.0000 </r>
       <r>   -0.0277    1.0000 </r>
       <r>   -0.0277    1.0000 </r>
       <r>   -0.0277    1.0000 </r>
       <r>   -0.0277    1.0000 </r>
       <r>   -0.0277    1.0000 </r>
       <r>   -0.0277    1.0000 </r>
       <r>    0.0899    1.0000 </r>
       <r>    0.0899    1.0000 </r>
       <r>    0.0899    1.0000 </r>
       <r>    0.0899    1.0000 </r>
       <r>    0.0899    1.0000 </r>
       <r>    0.0899    1.0000 </r>
       <r>    0.0899    1.0000 </r>
       <r>    0.0899    1.0000 </r>
       <r>    0.1159    1.0000 </r>
       <r>    0.1159    1.0000 </r>
       <r>    0.1159    1.0000 </r>
       <r>    0.1159    1.0000 </r>
       <r>    0.1159    1.0000 </r>
       <r>    0.1159    1.0000 </r>
       <r>    0.1159    1.0000 </r>
       <r>    0.1159    1.0000 </r>
       <r>    0.6656    1.0000 </r>
       <r>    0.6656    1.0000 </r>
       <r>    0.6806    1.0000 </r>
       <r>    0.6806    1.0000 </r>
       <r>    0.7654    1.0000 </r>
       <r>    0.7655    1.0000 </r>
       <r>    0.7827    1.0000 </r>
       <r>    0.7827    1.0000 </r>
       <r>    0.7828    1.0000 </r>
       <r>    0.7828    1.0000 </r>
       <r>    0.7828    1.0000 </r>
       <r>    0.7828    1.0000 </r>
       <r>    0.7828    1.0000 </r>
       <r>    0.7828    1.0000 </r>
       <r>    0.7906    1.0000 </r>
       <r>    0.7906    1.0000 </r>
       <r>    0.7974    1.0000 </r>
       <r>    0.7974    1.0000 </r>
       <r>    0.7974    1.0000 </r>
       <r>    0.7974    1.0000 </r>
       <r>    0.7974    1.0000 </r>
       <r>    0.7974    1.0000 </r>
       <r>    0.7974    1.0000 </r>
       <r>    0.7974    1.0000 </r>
       <r>    0.8148    1.0000 </r>
       <r>    0.8148    1.0000 </r>
       <r>    0.8266    1.0000 </r>
       <r>    0.8267    1.0000 </r>
       <r>    0.8509    1.0000 </r>
       <r>    0.8509    1.0000 </r>
       <r>    0.8509    1.0000 </r>
       <r>    0.8509    1.0000 </r>
       <r>    0.8509    1.0000 </r>
       <r>    0.8509    1.0000 </r>
       <r>    0.8509    1.0000 </r>
       <r>    0.8509    1.0000 </r>
       <r>    0.9223    1.0000 </r>
       <r>    0.9223    1.0000 </r>
       <r>    0.9250    1.0000 </r>
       <r>    0.9250    1.0000 </r>
       <r>    0.9250    1.0000 </r>
       <r>    0.9251    1.0000 </r>
       <r>    0.9251    1.0000 </r>
       <r>    0.9251    1.0000 </r>
       <r>    0.9251    1.0000 </r>
       <r>    0.9251    1.0000 </r>
       <r>    1.0782    1.0000 </r>
       <r>    1.0782    1.0000 </r>
       <r>    1.1149    1.0000 </r>
       <r>    1.1149    1.0000 </r>
       <r>    1.1149    1.0000 </r>
       <r>    1.1149    1.0000 </r>
       <r>    1.1149    1.0000 </r>
       <r>    1.1149    1.0000 </r>
       <r>    1.1149    1.0000 </r>
       <r>    1.1150    1.0000 </r>
       <r>    1.1316    1.0000 </r>
       <r>    1.1316    1.0000 </r>
       <r>    1.1316    1.0000 </r>
       <r>    1.1316    1.0000 </r>
       <r>    1.1316    1.0000 </r>
       <r>    1.1316    1.0000 </r>
       <r>    1.1316    1.0000 </r>
       <r>    1.1316    1.0000 </r>
       <r>    1.2223    1.0000 </r>
       <r>    1.2223    1.0000 </r>
       <r>    1.2223    1.0000 </r>
       <r>    1.2223    1.0000 </r>
       <r>    1.2223    1.0000 </r>
       <r>    1.2223    1.0000 </r>
       <r>    1.2223    1.0000 </r>
       <r>    1.2223    1.0000 </r>
       <r>    1.2784    1.0000 </r>
       <r>    1.2784    1.0000 </r>
       <r>    1.2784    1.0000 </r>
       <r>    1.2784    1.0000 </r>
       <r>    1.2927    1.0000 </r>
       <r>    1.2927    1.0000 </r>
       <r>    1.3733    1.0000 </r>
       <r>    1.3734    1.0000 </r>
       <r>    1.3734    1.0000 </r>
       <r>    1.3734    1.0000 </r>
       <r>    1.3734    1.0000 </r>
       <r>    1.3734    1.0000 </r>
       <r>    1.3734    1.0000 </r>
       <r>    1.3734    1.0000 </r>
       <r>    1.3964    1.0000 </r>
       <r>    1.3964    1.0000 </r>
       <r>    1.6795    1.0000 </r>
       <r>    1.6795    1.0000 </r>
       <r>    1.6795    1.0000 </r>
       <r>    1.6795    1.0000 </r>
       <r>    1.6795    1.0000 </r>
       <r>    1.6795    1.0000 </r>
       <r>    1.6795    1.0000 </r>
       <r>    1.6795    1.0000 </r>
       <r>    1.6988    1.0000 </r>
       <r>    1.6988    1.0000 </r>
       <r>    1.6988    1.0000 </r>
       <r>    1.6988    1.0000 </r>
       <r>    1.7229    1.0000 </r>
       <r>    1.7229    1.0000 </r>
       <r>    1.7229    1.0000 </r>
       <r>    1.7229    1.0000 </r>
       <r>    1.7229    1.0000 </r>
       <r>    1.7229    1.0000 </r>
       <r>    1.7229    1.0000 </r>
       <r>    1.7229    1.0000 </r>
       <r>    1.8491    1.0000 </r>
       <r>    1.8491    1.0000 </r>
       <r>    1.9724    1.0000 </r>
       <r>    1.9724    1.0000 </r>
       <r>    1.9724    1.0000 </r>
       <r>    1.9725    1.0000 </r>
       <r>    1.9725    1.0000 </r>
       <r>    1.9725    1.0000 </r>
       <r>    1.9725    1.0000 </r>
       <r>    1.9725    1.0000 </r>
       <r>    2.0538    1.0000 </r>
       <r>    2.0538    1.0000 </r>
       <r>    2.0538    1.0000 </r>
       <r>    2.0538    1.0000 </r>
       <r>    2.0538    1.0000 </r>
       <r>    2.0538    1.0000 </r>
       <r>    2.0538    1.0000 </r>
       <r>    2.0538    1.0000 </r>
       <r>    2.2472    1.0000 </r>
       <r>    2.2472    1.0000 </r>
       <r>    2.2472    1.0000 </r>
       <r>    2.2472    1.0000 </r>
       <r>    2.2472    1.0000 </r>
       <r>    2.2472    1.0000 </r>
       <r>    2.2473    1.0000 </r>
       <r>    2.2473    1.0000 </r>
       <r>    2.3706    1.0000 </r>
       <r>    2.3706    1.0000 </r>
       <r>    2.3706    1.0000 </r>
       <r>    2.3706    1.0000 </r>
       <r>    2.4947    1.0000 </r>
       <r>    2.4947    1.0000 </r>
       <r>    2.4947    1.0000 </r>
       <r>    2.4947    1.0000 </r>
       <r>    2.4947    1.0000 </r>
       <r>    2.4947    1.0000 </r>
       <r>    2.4947    1.0000 </r>
       <r>    2.4947    1.0000 </r>
       <r>    2.5319    1.0000 </r>
       <r>    2.5319    1.0000 </r>
       <r>    2.5319    1.0000 </r>
       <r>    2.5319    1.0000 </r>
       <r>    2.5319    1.0000 </r>
       <r>    2.5319    1.0000 </r>
       <r>    2.5319    1.0000 </r>
       <r>    2.5319    1.0000 </r>
       <r>    2.7581    1.0000 </r>
       <r>    2.7581    1.0000 </r>
       <r>    2.9908    1.0000 </r>
       <r>    2.9908    1.0000 </r>
       <r>    2.9908    1.0000 </r>
       <r>    2.9908    1.0000 </r>
       <r>    4.6888    0.0000 </r>
       <r>    4.6888    0.0000 </r>
       <r>    5.6378    0.0000 </r>
       <r>    5.6378    0.0000 </r>
       <r>    5.6378    0.0000 </r>
       <r>    5.6378    0.0000 </r>
       <r>    5.6378    0.0000 </r>
       <r>    5.6378    0.0000 </r>
       <r>    5.6378    0.0000 </r>
       <r>    5.6378    0.0000 </r>
       <r>    6.0116    0.0000 </r>
       <r>    6.0116    0.0000 </r>
       <r>    6.1646    0.0000 </r>
       <r>    6.1646    0.0000 </r>
       <r>    6.2798    0.0000 </r>
       <r>    6.2798    0.0000 </r>
       <r>    6.2799    0.0000 </r>
       <r>    6.2799    0.0000 </r>
       <r>    6.3686    0.0000 </r>
       <r>    6.3686    0.0000 </r>
       <r>    6.4378    0.0000 </r>
       <r>    6.4378    0.0000 </r>
       <r>    6.4378    0.0000 </r>
       <r>    6.4378    0.0000 </r>
       <r>    6.4378    0.0000 </r>
       <r>    6.4378    0.0000 </r>
       <r>    6.4378    0.0000 </r>
       <r>    6.4378    0.0000 </r>
       <r>    6.6415    0.0000 </r>
       <r>    6.6415    0.0000 </r>
       <r>    6.6734    0.0000 </r>
       <r>    6.6734    0.0000 </r>
       <r>    6.9394    0.0000 </r>
       <r>    6.9394    0.0000 </r>
       <r>    6.9394    0.0000 </r>
       <r>    6.9394    0.0000 </r>
       <r>    6.9394    0.0000 </r>
       <r>    6.9394    0.0000 </r>
       <r>    6.9394    0.0000 </r>
       <r>    6.9394    0.0000 </r>
       <r>    7.1392    0.0000 </r>
       <r>    7.1392    0.0000 </r>
       <r>    7.1392    0.0000 </r>
       <r>    7.1392    0.0000 </r>
       <r>    7.1392    0.0000 </r>
       <r>    7.1392    0.0000 </r>
       <r>    7.1393    0.0000 </r>
       <r>    7.1393    0.0000 </r>
       <r>    7.2924    0.0000 </r>
       <r>    7.2924    0.0000 </r>
       <r>    7.5396    0.0000 </r>
       <r>    7.5396    0.0000 </r>
       <r>    7.5396    0.0000 </r>
       <r>    7.5396    0.0000 </r>
       <r>    7.5396    0.0000 </r>
       <r>    7.5396    0.0000 </r>
       <r>    7.5396    0.0000 </r>
       <r>    7.5396    0.0000 </r>
       <r>    7.7053    0.0000 </r>
       <r>    7.7053    0.0000 </r>
       <r>    7.7053    0.0000 </r>
       <r>    7.7053    0.0000 </r>
       <r>    8.0917    0.0000 </r>
       <r>    8.0917    0.0000 </r>
       <r>    8.0917    0.0000 </r>
       <r>    8.0917    0.0000 </r>
       <r>    8.0917    0.0000 </r>
       <r>    8.0917    0.0000 </r>
       <r>    8.0917    0.0000 </r>
       <r>    8.0917    0.0000 </r>
       <r>    8.2334    0.0000 </r>
       <r>    8.2334    0.0000 </r>
       <r>    8.3444    0.0000 </r>
       <r>    8.3444    0.0000 </r>
       <r>    8.4819    0.0000 </r>
       <r>    8.4819    0.0000 </r>
       <r>    8.5641    0.0000 </r>
       <r>    8.5641    0.0000 </r>
       <r>    8.5641    0.0000 </r>
       <r>    8.5641    0.0000 </r>
       <r>    8.5641    0.0000 </r>
       <r>    8.5641    0.0000 </r>
       <r>    8.5641    0.0000 </r>
       <r>    8.5641    0.0000 </r>
       <r>    8.8808    0.0000 </r>
       <r>    8.8808    0.0000 </r>
       <r>    8.8808    0.0000 </r>
       <r>    8.8808    0.0000 </r>
       <r>    8.8808    0.0000 </r>
       <r>    8.8808    0.0000 </r>
       <r>    8.8808    0.0000 </r>
       <r>    8.8809    0.0000 </r>
       <r>    8.9570    0.0000 </r>
       <r>    8.9570    0.0000 </r>
       <r>    8.9570    0.0000 </r>
       <r>    8.9570    0.0000 </r>
       <r>    8.9570    0.0000 </r>
       <r>    8.9571    0.0000 </r>
       <r>    8.9571    0.0000 </r>
       <r>    8.9572    0.0000 </r>
       <r>    9.0112    0.0000 </r>
       <r>    9.0114    0.0000 </r>
       <r>    9.0826    0.0000 </r>
       <r>    9.0826    0.0000 </r>
       <r>    9.0827    0.0000 </r>
       <r>    9.0829    0.0000 </r>
       <r>    9.0832    0.0000 </r>
       <r>    9.0833    0.0000 </r>
       <r>    9.0841    0.0000 </r>
       <r>    9.0851    0.0000 </r>
       <r>    9.1671    0.0000 </r>
       <r>    9.1795    0.0000 </r>
       <r>    9.3139    0.0000 </r>
       <r>    9.3205    0.0000 </r>
       <r>    9.3258    0.0000 </r>
      </set>
      <set comment="kpoint 5">
       <r>  -13.6578    1.0000 </r>
       <r>  -13.6578    1.0000 </r>
       <r>  -13.6578    1.0000 </r>
       <r>  -13.6578    1.0000 </r>
       <r>  -13.6578    1.0000 </r>
       <r>  -13.6578    1.0000 </r>
       <r>  -13.6577    1.0000 </r>
       <r>  -13.6577    1.0000 </r>
       <r>  -13.6525    1.0000 </r>
       <r>  -13.6525    1.0000 </r>
       <r>  -13.6525    1.0000 </r>
       <r>  -13.6525    1.0000 </r>
       <r>  -13.6464    1.0000 </r>
       <r>  -13.6464    1.0000 </r>
       <r>  -13.6464    1.0000 </r>
       <r>  -13.6464    1.0000 </r>
       <r>  -13.6464    1.0000 </r>
       <r>  -13.6464    1.0000 </r>
       <r>  -13.6464    1.0000 </r>
       <r>  -13.6463    1.0000 </r>
       <r>  -13.6459    1.0000 </r>
       <r>  -13.6459    1.0000 </r>
       <r>  -13.6459    1.0000 </r>
       <r>  -13.6459    1.0000 </r>
       <r>  -13.6405    1.0000 </r>
       <r>  -13.6405    1.0000 </r>
       <r>  -13.6405    1.0000 </r>
       <r>  -13.6405    1.0000 </r>
       <r>  -13.6360    1.0000 </r>
       <r>  -13.6360    1.0000 </r>
       <r>  -13.6360    1.0000 </r>
       <r>  -13.6360    1.0000 </r>
       <r>  -13.6149    1.0000 </r>
       <r>  -13.6149    1.0000 </r>
       <r>  -13.6149    1.0000 </r>
       <r>  -13.6149    1.0000 </r>
       <r>  -13.5734    1.0000 </r>
       <r>  -13.5734    1.0000 </r>
       <r>  -13.5734    1.0000 </r>
       <r>  -13.5734    1.0000 </r>
       <r>  -13.5685    1.0000 </r>
       <r>  -13.5685    1.0000 </r>
       <r>  -13.5685    1.0000 </r>
       <r>  -13.5685    1.0000 </r>
       <r>  -13.5685    1.0000 </r>
       <r>  -13.5685    1.0000 </r>
       <r>  -13.5685    1.0000 </r>
       <r>  -13.5685    1.0000 </r>
       <r>  -13.4828    1.0000 </r>
       <r>  -13.4828    1.0000 </r>
       <r>  -13.4828    1.0000 </r>
       <r>  -13.4828    1.0000 </r>
       <r>  -13.4718    1.0000 </r>
       <r>  -13.4718    1.0000 </r>
       <r>  -13.4718    1.0000 </r>
       <r>  -13.4718    1.0000 </r>
       <r>  -13.4718    1.0000 </r>
       <r>  -13.4718    1.0000 </r>
       <r>  -13.4718    1.0000 </r>
       <r>  -13.4718    1.0000 </r>
       <r>  -13.4090    1.0000 </r>
       <r>  -13.4090    1.0000 </r>
       <r>  -13.4090    1.0000 </r>
       <r>  -13.4089    1.0000 </r>
       <r>  -13.3780    1.0000 </r>
       <r>  -13.3780    1.0000 </r>
       <r>  -13.3780    1.0000 </r>
       <r>  -13.3780    1.0000 </r>
       <r>  -13.3780    1.0000 </r>
       <r>  -13.3780    1.0000 </r>
       <r>  -13.3780    1.0000 </r>
       <r>  -13.3780    1.0000 </r>
       <r>  -13.3768    1.0000 </r>
       <r>  -13.3768    1.0000 </r>
       <r>  -13.3768    1.0000 </r>
       <r>  -13.3768    1.0000 </r>
       <r>  -13.3622    1.0000 </r>
       <r>  -13.3622    1.0000 </r>
       <r>  -13.3622    1.0000 </r>
       <r>  -13.3622    1.0000 </r>
       <r>  -13.3622    1.0000 </r>
       <r>  -13.3622    1.0000 </r>
       <r>  -13.3622    1.0000 </r>
       <r>  -13.3622    1.0000 </r>
       <r>  -13.3590    1.0000 </r>
       <r>  -13.3590    1.0000 </r>
       <r>  -13.3590    1.0000 </r>
       <r>  -13.3590    1.0000 </r>
       <r>  -13.3542    1.0000 </r>
       <r>  -13.3542    1.0000 </r>
       <r>  -13.3542    1.0000 </r>
       <r>  -13.3542    1.0000 </r>
       <r>  -13.3447    1.0000 </r>
       <r>  -13.3447    1.0000 </r>
       <r>  -13.3447    1.0000 </r>
       <r>  -13.3446    1.0000 </r>
       <r>  -13.2768    1.0000 </r>
       <r>  -13.2768    1.0000 </r>
       <r>  -13.2768    1.0000 </r>
       <r>  -13.2768    1.0000 </r>
       <r>  -13.2734    1.0000 </r>
       <r>  -13.2734    1.0000 </r>
       <r>  -13.2734    1.0000 </r>
       <r>  -13.2734    1.0000 </r>
       <r>  -13.2704    1.0000 </r>
       <r>  -13.2704    1.0000 </r>
       <r>  -13.2704    1.0000 </r>
       <r>  -13.2704    1.0000 </r>
       <r>  -13.2640    1.0000 </r>
       <r>  -13.2640    1.0000 </r>
       <r>  -13.2640    1.0000 </r>
       <r>  -13.2640    1.0000 </r>
       <r>  -13.2640    1.0000 </r>
       <r>  -13.2640    1.0000 </r>
       <r>  -13.2640    1.0000 </r>
       <r>  -13.2640    1.0000 </r>
       <r>  -13.2631    1.0000 </r>
       <r>  -13.2631    1.0000 </r>
       <r>  -13.2631    1.0000 </r>
       <r>  -13.2631    1.0000 </r>
       <r>  -13.2631    1.0000 </r>
       <r>  -13.2631    1.0000 </r>
       <r>  -13.2631    1.0000 </r>
       <r>  -13.2631    1.0000 </r>
       <r>  -13.2625    1.0000 </r>
       <r>  -13.2625    1.0000 </r>
       <r>  -13.2625    1.0000 </r>
       <r>  -13.2625    1.0000 </r>
       <r>  -13.2557    1.0000 </r>
       <r>  -13.2557    1.0000 </r>
       <r>  -13.2557    1.0000 </r>
       <r>  -13.2557    1.0000 </r>
       <r>  -13.2497    1.0000 </r>
       <r>  -13.2497    1.0000 </r>
       <r>  -13.2497    1.0000 </r>
       <r>  -13.2497    1.0000 </r>
       <r>  -13.2497    1.0000 </r>
       <r>  -13.2497    1.0000 </r>
       <r>  -13.2497    1.0000 </r>
       <r>  -13.2497    1.0000 </r>
       <r>  -13.2462    1.0000 </r>
       <r>  -13.2462    1.0000 </r>
       <r>  -13.2462    1.0000 </r>
       <r>  -13.2462    1.0000 </r>
       <r>  -13.2447    1.0000 </r>
       <r>  -13.2447    1.0000 </r>
       <r>  -13.2447    1.0000 </r>
       <r>  -13.2447    1.0000 </r>
       <r>  -13.2447    1.0000 </r>
       <r>  -13.2447    1.0000 </r>
       <r>  -13.2447    1.0000 </r>
       <r>  -13.2447    1.0000 </r>
       <r>  -13.2392    1.0000 </r>
       <r>  -13.2392    1.0000 </r>
       <r>  -13.2392    1.0000 </r>
       <r>  -13.2392    1.0000 </r>
       <r>  -13.2383    1.0000 </r>
       <r>  -13.2383    1.0000 </r>
       <r>  -13.2383    1.0000 </r>
       <r>  -13.2383    1.0000 </r>
       <r>  -11.7480    1.0000 </r>
       <r>  -11.7480    1.0000 </r>
       <r>  -11.7480    1.0000 </r>
       <r>  -11.7480    1.0000 </r>
       <r>  -11.3994    1.0000 </r>
       <r>  -11.3994    1.0000 </r>
       <r>  -11.3994    1.0000 </r>
       <r>  -11.3994    1.0000 </r>
       <r>  -11.2199    1.0000 </r>
       <r>  -11.2199    1.0000 </r>
       <r>  -11.2199    1.0000 </r>
       <r>  -11.2199    1.0000 </r>
       <r>  -11.2199    1.0000 </r>
       <r>  -11.2199    1.0000 </r>
       <r>  -11.2199    1.0000 </r>
       <r>  -11.2199    1.0000 </r>
       <r>  -10.8812    1.0000 </r>
       <r>  -10.8812    1.0000 </r>
       <r>  -10.8812    1.0000 </r>
       <r>  -10.8812    1.0000 </r>
       <r>  -10.8593    1.0000 </r>
       <r>  -10.8593    1.0000 </r>
       <r>  -10.8593    1.0000 </r>
       <r>  -10.8593    1.0000 </r>
       <r>  -10.8593    1.0000 </r>
       <r>  -10.8593    1.0000 </r>
       <r>  -10.8593    1.0000 </r>
       <r>  -10.8593    1.0000 </r>
       <r>  -10.6312    1.0000 </r>
       <r>  -10.6312    1.0000 </r>
       <r>  -10.6312    1.0000 </r>
       <r>  -10.6312    1.0000 </r>
       <r>  -10.6312    1.0000 </r>
       <r>  -10.6312    1.0000 </r>
       <r>  -10.6312    1.0000 </r>
       <r>  -10.6312    1.0000 </r>
       <r>  -10.5893    1.0000 </r>
       <r>  -10.5893    1.0000 </r>
       <r>  -10.5893    1.0000 </r>
       <r>  -10.5893    1.0000 </r>
       <r>  -10.5449    1.0000 </r>
       <r>  -10.5449    1.0000 </r>
       <r>  -10.5449    1.0000 </r>
       <r>  -10.5449    1.0000 </r>
       <r>  -10.4662    1.0000 </r>
       <r>  -10.4662    1.0000 </r>
       <r>  -10.4662    1.0000 </r>
       <r>  -10.4662    1.0000 </r>
       <r>  -10.4662    1.0000 </r>
       <r>  -10.4662    1.0000 </r>
       <r>  -10.4662    1.0000 </r>
       <r>  -10.4662    1.0000 </r>
       <r>  -10.4507    1.0000 </r>
       <r>  -10.4507    1.0000 </r>
       <r>  -10.4507    1.0000 </r>
       <r>  -10.4507    1.0000 </r>
       <r>  -10.4046    1.0000 </r>
       <r>  -10.4046    1.0000 </r>
       <r>  -10.4046    1.0000 </r>
       <r>  -10.4046    1.0000 </r>
       <r>  -10.3794    1.0000 </r>
       <r>  -10.3794    1.0000 </r>
       <r>  -10.3794    1.0000 </r>
       <r>  -10.3794    1.0000 </r>
       <r>   -3.7210    1.0000 </r>
       <r>   -3.7210    1.0000 </r>
       <r>   -3.7210    1.0000 </r>
       <r>   -3.7210    1.0000 </r>
       <r>   -3.5770    1.0000 </r>
       <r>   -3.5770    1.0000 </r>
       <r>   -3.5770    1.0000 </r>
       <r>   -3.5770    1.0000 </r>
       <r>   -3.5770    1.0000 </r>
       <r>   -3.5770    1.0000 </r>
       <r>   -3.5769    1.0000 </r>
       <r>   -3.5769    1.0000 </r>
       <r>   -3.4534    1.0000 </r>
       <r>   -3.4534    1.0000 </r>
       <r>   -3.4534    1.0000 </r>
       <r>   -3.4534    1.0000 </r>
       <r>   -3.2119    1.0000 </r>
       <r>   -3.2119    1.0000 </r>
       <r>   -3.2118    1.0000 </r>
       <r>   -3.2118    1.0000 </r>
       <r>   -3.2118    1.0000 </r>
       <r>   -3.2118    1.0000 </r>
       <r>   -3.2118    1.0000 </r>
       <r>   -3.2118    1.0000 </r>
       <r>   -3.0776    1.0000 </r>
       <r>   -3.0776    1.0000 </r>
       <r>   -3.0776    1.0000 </r>
       <r>   -3.0776    1.0000 </r>
       <r>   -2.8602    1.0000 </r>
       <r>   -2.8602    1.0000 </r>
       <r>   -2.8602    1.0000 </r>
       <r>   -2.8602    1.0000 </r>
       <r>   -2.0507    1.0000 </r>
       <r>   -2.0507    1.0000 </r>
       <r>   -2.0507    1.0000 </r>
       <r>   -2.0507    1.0000 </r>
       <r>   -2.0507    1.0000 </r>
       <r>   -2.0507    1.0000 </r>
       <r>   -2.0507    1.0000 </r>
       <r>   -2.0507    1.0000 </r>
       <r>   -1.7339    1.0000 </r>
       <r>   -1.7339    1.0000 </r>
       <r>   -1.7339    1.0000 </r>
       <r>   -1.7339    1.0000 </r>
       <r>   -1.7282    1.0000 </r>
       <r>   -1.7282    1.0000 </r>
       <r>   -1.7282    1.0000 </r>
       <r>   -1.7282    1.0000 </r>
       <r>   -1.7282    1.0000 </r>
       <r>   -1.7282    1.0000 </r>
       <r>   -1.7282    1.0000 </r>
       <r>   -1.7282    1.0000 </r>
       <r>   -1.5853    1.0000 </r>
       <r>   -1.5853    1.0000 </r>
       <r>   -1.5853    1.0000 </r>
       <r>   -1.5853    1.0000 </r>
       <r>   -1.4078    1.0000 </r>
       <r>   -1.4078    1.0000 </r>
       <r>   -1.4078    1.0000 </r>
       <r>   -1.4078    1.0000 </r>
       <r>   -1.1610    1.0000 </r>
       <r>   -1.1610    1.0000 </r>
       <r>   -1.1610    1.0000 </r>
       <r>   -1.1610    1.0000 </r>
       <r>   -1.1457    1.0000 </r>
       <r>   -1.1457    1.0000 </r>
       <r>   -1.1457    1.0000 </r>
       <r>   -1.1457    1.0000 </r>
       <r>   -1.1456    1.0000 </r>
       <r>   -1.1456    1.0000 </r>
       <r>   -1.1456    1.0000 </r>
       <r>   -1.1456    1.0000 </r>
       <r>   -1.1187    1.0000 </r>
       <r>   -1.1187    1.0000 </r>
       <r>   -1.1187    1.0000 </r>
       <r>   -1.1187    1.0000 </r>
       <r>   -1.0603    1.0000 </r>
       <r>   -1.0603    1.0000 </r>
       <r>   -1.0603    1.0000 </r>
       <r>   -1.0603    1.0000 </r>
       <r>   -0.7025    1.0000 </r>
       <r>   -0.7025    1.0000 </r>
       <r>   -0.7025    1.0000 </r>
       <r>   -0.7025    1.0000 </r>
       <r>   -0.6675    1.0000 </r>
       <r>   -0.6675    1.0000 </r>
       <r>   -0.6675    1.0000 </r>
       <r>   -0.6675    1.0000 </r>
       <r>   -0.6602    1.0000 </r>
       <r>   -0.6602    1.0000 </r>
       <r>   -0.6602    1.0000 </r>
       <r>   -0.6602    1.0000 </r>
       <r>   -0.6581    1.0000 </r>
       <r>   -0.6581    1.0000 </r>
       <r>   -0.6581    1.0000 </r>
       <r>   -0.6580    1.0000 </r>
       <r>   -0.6580    1.0000 </r>
       <r>   -0.6580    1.0000 </r>
       <r>   -0.6580    1.0000 </r>
       <r>   -0.6580    1.0000 </r>
       <r>   -0.5506    1.0000 </r>
       <r>   -0.5506    1.0000 </r>
       <r>   -0.5506    1.0000 </r>
       <r>   -0.5506    1.0000 </r>
       <r>   -0.5074    1.0000 </r>
       <r>   -0.5074    1.0000 </r>
       <r>   -0.5074    1.0000 </r>
       <r>   -0.5074    1.0000 </r>
       <r>   -0.4737    1.0000 </r>
       <r>   -0.4737    1.0000 </r>
       <r>   -0.4737    1.0000 </r>
       <r>   -0.4737    1.0000 </r>
       <r>   -0.4737    1.0000 </r>
       <r>   -0.4737    1.0000 </r>
       <r>   -0.4737    1.0000 </r>
       <r>   -0.4737    1.0000 </r>
       <r>   -0.4369    1.0000 </r>
       <r>   -0.4369    1.0000 </r>
       <r>   -0.4369    1.0000 </r>
       <r>   -0.4369    1.0000 </r>
       <r>   -0.4348    1.0000 </r>
       <r>   -0.4348    1.0000 </r>
       <r>   -0.4348    1.0000 </r>
       <r>   -0.4348    1.0000 </r>
       <r>   -0.4348    1.0000 </r>
       <r>   -0.4348    1.0000 </r>
       <r>   -0.4348    1.0000 </r>
       <r>   -0.4347    1.0000 </r>
       <r>   -0.4282    1.0000 </r>
       <r>   -0.4282    1.0000 </r>
       <r>   -0.4282    1.0000 </r>
       <r>   -0.4282    1.0000 </r>
       <r>   -0.3475    1.0000 </r>
       <r>   -0.3475    1.0000 </r>
       <r>   -0.3475    1.0000 </r>
       <r>   -0.3475    1.0000 </r>
       <r>   -0.2793    1.0000 </r>
       <r>   -0.2793    1.0000 </r>
       <r>   -0.2793    1.0000 </r>
       <r>   -0.2793    1.0000 </r>
       <r>   -0.2793    1.0000 </r>
       <r>   -0.2793    1.0000 </r>
       <r>   -0.2793    1.0000 </r>
       <r>   -0.2793    1.0000 </r>
       <r>   -0.2749    1.0000 </r>
       <r>   -0.2749    1.0000 </r>
       <r>   -0.2749    1.0000 </r>
       <r>   -0.2749    1.0000 </r>
       <r>   -0.2290    1.0000 </r>
       <r>   -0.2289    1.0000 </r>
       <r>   -0.2289    1.0000 </r>
       <r>   -0.2289    1.0000 </r>
       <r>   -0.1697    1.0000 </r>
       <r>   -0.1697    1.0000 </r>
       <r>   -0.1696    1.0000 </r>
       <r>   -0.1696    1.0000 </r>
       <r>   -0.1568    1.0000 </r>
       <r>   -0.1568    1.0000 </r>
       <r>   -0.1568    1.0000 </r>
       <r>   -0.1568    1.0000 </r>
       <r>   -0.1568    1.0000 </r>
       <r>   -0.1568    1.0000 </r>
       <r>   -0.1568    1.0000 </r>
       <r>   -0.1568    1.0000 </r>
       <r>   -0.0870    1.0000 </r>
       <r>   -0.0870    1.0000 </r>
       <r>   -0.0870    1.0000 </r>
       <r>   -0.0870    1.0000 </r>
       <r>    0.0116    1.0000 </r>
       <r>    0.0116    1.0000 </r>
       <r>    0.0116    1.0000 </r>
       <r>    0.0116    1.0000 </r>
       <r>    0.0349    1.0000 </r>
       <r>    0.0349    1.0000 </r>
       <r>    0.0349    1.0000 </r>
       <r>    0.0349    1.0000 </r>
       <r>    0.0349    1.0000 </r>
       <r>    0.0349    1.0000 </r>
       <r>    0.0349    1.0000 </r>
       <r>    0.0349    1.0000 </r>
       <r>    0.0761    1.0000 </r>
       <r>    0.0761    1.0000 </r>
       <r>    0.0761    1.0000 </r>
       <r>    0.0761    1.0000 </r>
       <r>    0.1214    1.0000 </r>
       <r>    0.1214    1.0000 </r>
       <r>    0.1215    1.0000 </r>
       <r>    0.1215    1.0000 </r>
       <r>    0.1215    1.0000 </r>
       <r>    0.1215    1.0000 </r>
       <r>    0.1215    1.0000 </r>
       <r>    0.1215    1.0000 </r>
       <r>    0.7546    1.0000 </r>
       <r>    0.7546    1.0000 </r>
       <r>    0.7546    1.0000 </r>
       <r>    0.7547    1.0000 </r>
       <r>    0.7813    1.0000 </r>
       <r>    0.7813    1.0000 </r>
       <r>    0.7814    1.0000 </r>
       <r>    0.7814    1.0000 </r>
       <r>    0.7814    1.0000 </r>
       <r>    0.7814    1.0000 </r>
       <r>    0.7814    1.0000 </r>
       <r>    0.7814    1.0000 </r>
       <r>    0.7834    1.0000 </r>
       <r>    0.7834    1.0000 </r>
       <r>    0.7835    1.0000 </r>
       <r>    0.7835    1.0000 </r>
       <r>    0.8306    1.0000 </r>
       <r>    0.8306    1.0000 </r>
       <r>    0.8306    1.0000 </r>
       <r>    0.8306    1.0000 </r>
       <r>    0.8358    1.0000 </r>
       <r>    0.8358    1.0000 </r>
       <r>    0.8358    1.0000 </r>
       <r>    0.8358    1.0000 </r>
       <r>    0.8358    1.0000 </r>
       <r>    0.8358    1.0000 </r>
       <r>    0.8358    1.0000 </r>
       <r>    0.8358    1.0000 </r>
       <r>    0.8471    1.0000 </r>
       <r>    0.8471    1.0000 </r>
       <r>    0.8472    1.0000 </r>
       <r>    0.8472    1.0000 </r>
       <r>    0.8736    1.0000 </r>
       <r>    0.8736    1.0000 </r>
       <r>    0.8736    1.0000 </r>
       <r>    0.8737    1.0000 </r>
       <r>    0.9216    1.0000 </r>
       <r>    0.9216    1.0000 </r>
       <r>    0.9216    1.0000 </r>
       <r>    0.9216    1.0000 </r>
       <r>    0.9255    1.0000 </r>
       <r>    0.9255    1.0000 </r>
       <r>    0.9256    1.0000 </r>
       <r>    0.9256    1.0000 </r>
       <r>    0.9256    1.0000 </r>
       <r>    0.9256    1.0000 </r>
       <r>    0.9256    1.0000 </r>
       <r>    0.9256    1.0000 </r>
       <r>    0.9980    1.0000 </r>
       <r>    0.9980    1.0000 </r>
       <r>    0.9981    1.0000 </r>
       <r>    0.9981    1.0000 </r>
       <r>    1.0202    1.0000 </r>
       <r>    1.0202    1.0000 </r>
       <r>    1.0202    1.0000 </r>
       <r>    1.0202    1.0000 </r>
       <r>    1.1142    1.0000 </r>
       <r>    1.1142    1.0000 </r>
       <r>    1.1142    1.0000 </r>
       <r>    1.1142    1.0000 </r>
       <r>    1.1142    1.0000 </r>
       <r>    1.1142    1.0000 </r>
       <r>    1.1143    1.0000 </r>
       <r>    1.1143    1.0000 </r>
       <r>    1.1748    1.0000 </r>
       <r>    1.1748    1.0000 </r>
       <r>    1.1748    1.0000 </r>
       <r>    1.1748    1.0000 </r>
       <r>    1.2554    1.0000 </r>
       <r>    1.2554    1.0000 </r>
       <r>    1.2554    1.0000 </r>
       <r>    1.2554    1.0000 </r>
       <r>    1.4405    1.0000 </r>
       <r>    1.4405    1.0000 </r>
       <r>    1.4405    1.0000 </r>
       <r>    1.4405    1.0000 </r>
       <r>    1.4775    1.0000 </r>
       <r>    1.4776    1.0000 </r>
       <r>    1.4776    1.0000 </r>
       <r>    1.4776    1.0000 </r>
       <r>    1.4792    1.0000 </r>
       <r>    1.4792    1.0000 </r>
       <r>    1.4792    1.0000 </r>
       <r>    1.4792    1.0000 </r>
       <r>    1.5435    1.0000 </r>
       <r>    1.5435    1.0000 </r>
       <r>    1.5435    1.0000 </r>
       <r>    1.5435    1.0000 </r>
       <r>    1.5435    1.0000 </r>
       <r>    1.5435    1.0000 </r>
       <r>    1.5435    1.0000 </r>
       <r>    1.5435    1.0000 </r>
       <r>    1.6097    1.0000 </r>
       <r>    1.6097    1.0000 </r>
       <r>    1.6097    1.0000 </r>
       <r>    1.6097    1.0000 </r>
       <r>    1.6247    1.0000 </r>
       <r>    1.6247    1.0000 </r>
       <r>    1.6247    1.0000 </r>
       <r>    1.6247    1.0000 </r>
       <r>    1.6247    1.0000 </r>
       <r>    1.6247    1.0000 </r>
       <r>    1.6247    1.0000 </r>
       <r>    1.6247    1.0000 </r>
       <r>    1.8288    1.0000 </r>
       <r>    1.8288    1.0000 </r>
       <r>    1.8288    1.0000 </r>
       <r>    1.8288    1.0000 </r>
       <r>    1.8288    1.0000 </r>
       <r>    1.8288    1.0000 </r>
       <r>    1.8288    1.0000 </r>
       <r>    1.8288    1.0000 </r>
       <r>    1.9171    1.0000 </r>
       <r>    1.9171    1.0000 </r>
       <r>    1.9171    1.0000 </r>
       <r>    1.9171    1.0000 </r>
       <r>    2.0339    1.0000 </r>
       <r>    2.0339    1.0000 </r>
       <r>    2.0339    1.0000 </r>
       <r>    2.0339    1.0000 </r>
       <r>    2.0515    1.0000 </r>
       <r>    2.0515    1.0000 </r>
       <r>    2.0515    1.0000 </r>
       <r>    2.0516    1.0000 </r>
       <r>    2.0516    1.0000 </r>
       <r>    2.0516    1.0000 </r>
       <r>    2.0516    1.0000 </r>
       <r>    2.0516    1.0000 </r>
       <r>    2.0594    1.0000 </r>
       <r>    2.0594    1.0000 </r>
       <r>    2.0595    1.0000 </r>
       <r>    2.0595    1.0000 </r>
       <r>    2.3258    1.0000 </r>
       <r>    2.3258    1.0000 </r>
       <r>    2.3258    1.0000 </r>
       <r>    2.3258    1.0000 </r>
       <r>    2.3258    1.0000 </r>
       <r>    2.3258    1.0000 </r>
       <r>    2.3258    1.0000 </r>
       <r>    2.3258    1.0000 </r>
       <r>    2.4630    1.0000 </r>
       <r>    2.4631    1.0000 </r>
       <r>    2.4631    1.0000 </r>
       <r>    2.4631    1.0000 </r>
       <r>    2.4631    1.0000 </r>
       <r>    2.4631    1.0000 </r>
       <r>    2.4631    1.0000 </r>
       <r>    2.4631    1.0000 </r>
       <r>    2.6094    1.0000 </r>
       <r>    2.6094    1.0000 </r>
       <r>    2.6094    1.0000 </r>
       <r>    2.6094    1.0000 </r>
       <r>    2.7010    1.0000 </r>
       <r>    2.7010    1.0000 </r>
       <r>    2.7010    1.0000 </r>
       <r>    2.7010    1.0000 </r>
       <r>    2.9004    1.0000 </r>
       <r>    2.9004    1.0000 </r>
       <r>    2.9004    1.0000 </r>
       <r>    2.9004    1.0000 </r>
       <r>    5.5574    0.0000 </r>
       <r>    5.5574    0.0000 </r>
       <r>    5.5574    0.0000 </r>
       <r>    5.5574    0.0000 </r>
       <r>    5.9735    0.0000 </r>
       <r>    5.9735    0.0000 </r>
       <r>    5.9735    0.0000 </r>
       <r>    5.9735    0.0000 </r>
       <r>    5.9735    0.0000 </r>
       <r>    5.9735    0.0000 </r>
       <r>    5.9735    0.0000 </r>
       <r>    5.9735    0.0000 </r>
       <r>    6.1255    0.0000 </r>
       <r>    6.1255    0.0000 </r>
       <r>    6.1255    0.0000 </r>
       <r>    6.1255    0.0000 </r>
       <r>    6.3413    0.0000 </r>
       <r>    6.3413    0.0000 </r>
       <r>    6.3414    0.0000 </r>
       <r>    6.3414    0.0000 </r>
       <r>    6.3414    0.0000 </r>
       <r>    6.3414    0.0000 </r>
       <r>    6.3414    0.0000 </r>
       <r>    6.3414    0.0000 </r>
       <r>    6.5011    0.0000 </r>
       <r>    6.5011    0.0000 </r>
       <r>    6.5011    0.0000 </r>
       <r>    6.5011    0.0000 </r>
       <r>    6.5635    0.0000 </r>
       <r>    6.5635    0.0000 </r>
       <r>    6.5636    0.0000 </r>
       <r>    6.5636    0.0000 </r>
       <r>    6.8677    0.0000 </r>
       <r>    6.8677    0.0000 </r>
       <r>    6.8677    0.0000 </r>
       <r>    6.8677    0.0000 </r>
       <r>    7.0263    0.0000 </r>
       <r>    7.0263    0.0000 </r>
       <r>    7.0263    0.0000 </r>
       <r>    7.0263    0.0000 </r>
       <r>    7.0466    0.0000 </r>
       <r>    7.0466    0.0000 </r>
       <r>    7.0466    0.0000 </r>
       <r>    7.0466    0.0000 </r>
       <r>    7.4728    0.0000 </r>
       <r>    7.4728    0.0000 </r>
       <r>    7.4728    0.0000 </r>
       <r>    7.4728    0.0000 </r>
       <r>    7.4728    0.0000 </r>
       <r>    7.4728    0.0000 </r>
       <r>    7.4728    0.0000 </r>
       <r>    7.4728    0.0000 </r>
       <r>    7.5248    0.0000 </r>
       <r>    7.5248    0.0000 </r>
       <r>    7.5248    0.0000 </r>
       <r>    7.5248    0.0000 </r>
       <r>    7.5691    0.0000 </r>
       <r>    7.5691    0.0000 </r>
       <r>    7.5691    0.0000 </r>
       <r>    7.5691    0.0000 </r>
       <r>    7.8007    0.0000 </r>
       <r>    7.8007    0.0000 </r>
       <r>    7.8007    0.0000 </r>
       <r>    7.8007    0.0000 </r>
       <r>    8.0554    0.0000 </r>
       <r>    8.0554    0.0000 </r>
       <r>    8.0554    0.0000 </r>
       <r>    8.0554    0.0000 </r>
       <r>    8.0554    0.0000 </r>
       <r>    8.0554    0.0000 </r>
       <r>    8.0554    0.0000 </r>
       <r>    8.0554    0.0000 </r>
       <r>    8.0778    0.0000 </r>
       <r>    8.0778    0.0000 </r>
       <r>    8.0778    0.0000 </r>
       <r>    8.0778    0.0000 </r>
       <r>    8.4623    0.0000 </r>
       <r>    8.4623    0.0000 </r>
       <r>    8.4623    0.0000 </r>
       <r>    8.4623    0.0000 </r>
       <r>    8.4623    0.0000 </r>
       <r>    8.4623    0.0000 </r>
       <r>    8.4623    0.0000 </r>
       <r>    8.4623    0.0000 </r>
       <r>    8.6321    0.0000 </r>
       <r>    8.6321    0.0000 </r>
       <r>    8.6321    0.0000 </r>
       <r>    8.6321    0.0000 </r>
       <r>    8.7336    0.0000 </r>
       <r>    8.7336    0.0000 </r>
       <r>    8.7336    0.0000 </r>
       <r>    8.7336    0.0000 </r>
       <r>    8.7336    0.0000 </r>
       <r>    8.7336    0.0000 </r>
       <r>    8.7336    0.0000 </r>
       <r>    8.7336    0.0000 </r>
       <r>    8.7359    0.0000 </r>
       <r>    8.7359    0.0000 </r>
       <r>    8.7359    0.0000 </r>
       <r>    8.7359    0.0000 </r>
       <r>    8.9241    0.0000 </r>
       <r>    8.9241    0.0000 </r>
       <r>    8.9241    0.0000 </r>
       <r>    8.9241    0.0000 </r>
       <r>    8.9242    0.0000 </r>
       <r>    8.9242    0.0000 </r>
       <r>    8.9243    0.0000 </r>
       <r>    8.9246    0.0000 </r>
       <r>    9.0301    0.0000 </r>
       <r>    9.0304    0.0000 </r>
       <r>    9.0305    0.0000 </r>
       <r>    9.0317    0.0000 </r>
       <r>    9.1906    0.0000 </r>
       <r>    9.2010    0.0000 </r>
       <r>    9.2346    0.0000 </r>
      </set>
      <set comment="kpoint 6">
       <r>  -13.6531    1.0000 </r>
       <r>  -13.6531    1.0000 </r>
       <r>  -13.6531    1.0000 </r>
       <r>  -13.6531    1.0000 </r>
       <r>  -13.6531    1.0000 </r>
       <r>  -13.6531    1.0000 </r>
       <r>  -13.6531    1.0000 </r>
       <r>  -13.6531    1.0000 </r>
       <r>  -13.6494    1.0000 </r>
       <r>  -13.6494    1.0000 </r>
       <r>  -13.6494    1.0000 </r>
       <r>  -13.6494    1.0000 </r>
       <r>  -13.6494    1.0000 </r>
       <r>  -13.6494    1.0000 </r>
       <r>  -13.6494    1.0000 </r>
       <r>  -13.6494    1.0000 </r>
       <r>  -13.6483    1.0000 </r>
       <r>  -13.6483    1.0000 </r>
       <r>  -13.6483    1.0000 </r>
       <r>  -13.6483    1.0000 </r>
       <r>  -13.6483    1.0000 </r>
       <r>  -13.6483    1.0000 </r>
       <r>  -13.6483    1.0000 </r>
       <r>  -13.6483    1.0000 </r>
       <r>  -13.6430    1.0000 </r>
       <r>  -13.6430    1.0000 </r>
       <r>  -13.6430    1.0000 </r>
       <r>  -13.6430    1.0000 </r>
       <r>  -13.6430    1.0000 </r>
       <r>  -13.6430    1.0000 </r>
       <r>  -13.6430    1.0000 </r>
       <r>  -13.6430    1.0000 </r>
       <r>  -13.6010    1.0000 </r>
       <r>  -13.6010    1.0000 </r>
       <r>  -13.6010    1.0000 </r>
       <r>  -13.6010    1.0000 </r>
       <r>  -13.6010    1.0000 </r>
       <r>  -13.6010    1.0000 </r>
       <r>  -13.6010    1.0000 </r>
       <r>  -13.6010    1.0000 </r>
       <r>  -13.5622    1.0000 </r>
       <r>  -13.5622    1.0000 </r>
       <r>  -13.5622    1.0000 </r>
       <r>  -13.5622    1.0000 </r>
       <r>  -13.5622    1.0000 </r>
       <r>  -13.5622    1.0000 </r>
       <r>  -13.5622    1.0000 </r>
       <r>  -13.5622    1.0000 </r>
       <r>  -13.4884    1.0000 </r>
       <r>  -13.4884    1.0000 </r>
       <r>  -13.4884    1.0000 </r>
       <r>  -13.4884    1.0000 </r>
       <r>  -13.4884    1.0000 </r>
       <r>  -13.4884    1.0000 </r>
       <r>  -13.4884    1.0000 </r>
       <r>  -13.4884    1.0000 </r>
       <r>  -13.4262    1.0000 </r>
       <r>  -13.4262    1.0000 </r>
       <r>  -13.4262    1.0000 </r>
       <r>  -13.4262    1.0000 </r>
       <r>  -13.4262    1.0000 </r>
       <r>  -13.4262    1.0000 </r>
       <r>  -13.4262    1.0000 </r>
       <r>  -13.4262    1.0000 </r>
       <r>  -13.3779    1.0000 </r>
       <r>  -13.3779    1.0000 </r>
       <r>  -13.3779    1.0000 </r>
       <r>  -13.3779    1.0000 </r>
       <r>  -13.3779    1.0000 </r>
       <r>  -13.3779    1.0000 </r>
       <r>  -13.3779    1.0000 </r>
       <r>  -13.3779    1.0000 </r>
       <r>  -13.3634    1.0000 </r>
       <r>  -13.3634    1.0000 </r>
       <r>  -13.3634    1.0000 </r>
       <r>  -13.3634    1.0000 </r>
       <r>  -13.3634    1.0000 </r>
       <r>  -13.3634    1.0000 </r>
       <r>  -13.3634    1.0000 </r>
       <r>  -13.3634    1.0000 </r>
       <r>  -13.3632    1.0000 </r>
       <r>  -13.3632    1.0000 </r>
       <r>  -13.3632    1.0000 </r>
       <r>  -13.3632    1.0000 </r>
       <r>  -13.3632    1.0000 </r>
       <r>  -13.3632    1.0000 </r>
       <r>  -13.3632    1.0000 </r>
       <r>  -13.3632    1.0000 </r>
       <r>  -13.3564    1.0000 </r>
       <r>  -13.3564    1.0000 </r>
       <r>  -13.3564    1.0000 </r>
       <r>  -13.3564    1.0000 </r>
       <r>  -13.3564    1.0000 </r>
       <r>  -13.3564    1.0000 </r>
       <r>  -13.3564    1.0000 </r>
       <r>  -13.3564    1.0000 </r>
       <r>  -13.2712    1.0000 </r>
       <r>  -13.2712    1.0000 </r>
       <r>  -13.2712    1.0000 </r>
       <r>  -13.2712    1.0000 </r>
       <r>  -13.2712    1.0000 </r>
       <r>  -13.2712    1.0000 </r>
       <r>  -13.2712    1.0000 </r>
       <r>  -13.2712    1.0000 </r>
       <r>  -13.2686    1.0000 </r>
       <r>  -13.2686    1.0000 </r>
       <r>  -13.2686    1.0000 </r>
       <r>  -13.2686    1.0000 </r>
       <r>  -13.2686    1.0000 </r>
       <r>  -13.2686    1.0000 </r>
       <r>  -13.2686    1.0000 </r>
       <r>  -13.2686    1.0000 </r>
       <r>  -13.2661    1.0000 </r>
       <r>  -13.2661    1.0000 </r>
       <r>  -13.2661    1.0000 </r>
       <r>  -13.2661    1.0000 </r>
       <r>  -13.2661    1.0000 </r>
       <r>  -13.2661    1.0000 </r>
       <r>  -13.2661    1.0000 </r>
       <r>  -13.2661    1.0000 </r>
       <r>  -13.2575    1.0000 </r>
       <r>  -13.2575    1.0000 </r>
       <r>  -13.2575    1.0000 </r>
       <r>  -13.2575    1.0000 </r>
       <r>  -13.2575    1.0000 </r>
       <r>  -13.2575    1.0000 </r>
       <r>  -13.2575    1.0000 </r>
       <r>  -13.2575    1.0000 </r>
       <r>  -13.2567    1.0000 </r>
       <r>  -13.2567    1.0000 </r>
       <r>  -13.2567    1.0000 </r>
       <r>  -13.2567    1.0000 </r>
       <r>  -13.2567    1.0000 </r>
       <r>  -13.2567    1.0000 </r>
       <r>  -13.2567    1.0000 </r>
       <r>  -13.2567    1.0000 </r>
       <r>  -13.2465    1.0000 </r>
       <r>  -13.2465    1.0000 </r>
       <r>  -13.2465    1.0000 </r>
       <r>  -13.2465    1.0000 </r>
       <r>  -13.2465    1.0000 </r>
       <r>  -13.2465    1.0000 </r>
       <r>  -13.2465    1.0000 </r>
       <r>  -13.2465    1.0000 </r>
       <r>  -13.2403    1.0000 </r>
       <r>  -13.2403    1.0000 </r>
       <r>  -13.2403    1.0000 </r>
       <r>  -13.2403    1.0000 </r>
       <r>  -13.2403    1.0000 </r>
       <r>  -13.2403    1.0000 </r>
       <r>  -13.2403    1.0000 </r>
       <r>  -13.2403    1.0000 </r>
       <r>  -13.2398    1.0000 </r>
       <r>  -13.2398    1.0000 </r>
       <r>  -13.2398    1.0000 </r>
       <r>  -13.2398    1.0000 </r>
       <r>  -13.2398    1.0000 </r>
       <r>  -13.2398    1.0000 </r>
       <r>  -13.2398    1.0000 </r>
       <r>  -13.2398    1.0000 </r>
       <r>  -11.5862    1.0000 </r>
       <r>  -11.5862    1.0000 </r>
       <r>  -11.5862    1.0000 </r>
       <r>  -11.5862    1.0000 </r>
       <r>  -11.5862    1.0000 </r>
       <r>  -11.5862    1.0000 </r>
       <r>  -11.5862    1.0000 </r>
       <r>  -11.5862    1.0000 </r>
       <r>  -11.2836    1.0000 </r>
       <r>  -11.2836    1.0000 </r>
       <r>  -11.2836    1.0000 </r>
       <r>  -11.2836    1.0000 </r>
       <r>  -11.2836    1.0000 </r>
       <r>  -11.2836    1.0000 </r>
       <r>  -11.2836    1.0000 </r>
       <r>  -11.2836    1.0000 </r>
       <r>  -10.8541    1.0000 </r>
       <r>  -10.8541    1.0000 </r>
       <r>  -10.8541    1.0000 </r>
       <r>  -10.8541    1.0000 </r>
       <r>  -10.8541    1.0000 </r>
       <r>  -10.8541    1.0000 </r>
       <r>  -10.8541    1.0000 </r>
       <r>  -10.8541    1.0000 </r>
       <r>  -10.6085    1.0000 </r>
       <r>  -10.6085    1.0000 </r>
       <r>  -10.6085    1.0000 </r>
       <r>  -10.6085    1.0000 </r>
       <r>  -10.6085    1.0000 </r>
       <r>  -10.6085    1.0000 </r>
       <r>  -10.6085    1.0000 </r>
       <r>  -10.6085    1.0000 </r>
       <r>  -10.5611    1.0000 </r>
       <r>  -10.5611    1.0000 </r>
       <r>  -10.5611    1.0000 </r>
       <r>  -10.5611    1.0000 </r>
       <r>  -10.5611    1.0000 </r>
       <r>  -10.5611    1.0000 </r>
       <r>  -10.5611    1.0000 </r>
       <r>  -10.5611    1.0000 </r>
       <r>  -10.5410    1.0000 </r>
       <r>  -10.5410    1.0000 </r>
       <r>  -10.5410    1.0000 </r>
       <r>  -10.5410    1.0000 </r>
       <r>  -10.5410    1.0000 </r>
       <r>  -10.5410    1.0000 </r>
       <r>  -10.5410    1.0000 </r>
       <r>  -10.5410    1.0000 </r>
       <r>  -10.5404    1.0000 </r>
       <r>  -10.5404    1.0000 </r>
       <r>  -10.5404    1.0000 </r>
       <r>  -10.5404    1.0000 </r>
       <r>  -10.5404    1.0000 </r>
       <r>  -10.5404    1.0000 </r>
       <r>  -10.5404    1.0000 </r>
       <r>  -10.5404    1.0000 </r>
       <r>  -10.4241    1.0000 </r>
       <r>  -10.4241    1.0000 </r>
       <r>  -10.4241    1.0000 </r>
       <r>  -10.4241    1.0000 </r>
       <r>  -10.4241    1.0000 </r>
       <r>  -10.4241    1.0000 </r>
       <r>  -10.4241    1.0000 </r>
       <r>  -10.4241    1.0000 </r>
       <r>   -3.6935    1.0000 </r>
       <r>   -3.6935    1.0000 </r>
       <r>   -3.6935    1.0000 </r>
       <r>   -3.6935    1.0000 </r>
       <r>   -3.6935    1.0000 </r>
       <r>   -3.6935    1.0000 </r>
       <r>   -3.6935    1.0000 </r>
       <r>   -3.6935    1.0000 </r>
       <r>   -3.4500    1.0000 </r>
       <r>   -3.4500    1.0000 </r>
       <r>   -3.4500    1.0000 </r>
       <r>   -3.4500    1.0000 </r>
       <r>   -3.4500    1.0000 </r>
       <r>   -3.4500    1.0000 </r>
       <r>   -3.4500    1.0000 </r>
       <r>   -3.4500    1.0000 </r>
       <r>   -3.1498    1.0000 </r>
       <r>   -3.1498    1.0000 </r>
       <r>   -3.1498    1.0000 </r>
       <r>   -3.1498    1.0000 </r>
       <r>   -3.1498    1.0000 </r>
       <r>   -3.1498    1.0000 </r>
       <r>   -3.1498    1.0000 </r>
       <r>   -3.1498    1.0000 </r>
       <r>   -3.0676    1.0000 </r>
       <r>   -3.0676    1.0000 </r>
       <r>   -3.0676    1.0000 </r>
       <r>   -3.0676    1.0000 </r>
       <r>   -3.0676    1.0000 </r>
       <r>   -3.0676    1.0000 </r>
       <r>   -3.0676    1.0000 </r>
       <r>   -3.0676    1.0000 </r>
       <r>   -1.9710    1.0000 </r>
       <r>   -1.9710    1.0000 </r>
       <r>   -1.9710    1.0000 </r>
       <r>   -1.9710    1.0000 </r>
       <r>   -1.9710    1.0000 </r>
       <r>   -1.9710    1.0000 </r>
       <r>   -1.9710    1.0000 </r>
       <r>   -1.9710    1.0000 </r>
       <r>   -1.8965    1.0000 </r>
       <r>   -1.8965    1.0000 </r>
       <r>   -1.8965    1.0000 </r>
       <r>   -1.8965    1.0000 </r>
       <r>   -1.8965    1.0000 </r>
       <r>   -1.8965    1.0000 </r>
       <r>   -1.8965    1.0000 </r>
       <r>   -1.8965    1.0000 </r>
       <r>   -1.5437    1.0000 </r>
       <r>   -1.5437    1.0000 </r>
       <r>   -1.5437    1.0000 </r>
       <r>   -1.5437    1.0000 </r>
       <r>   -1.5437    1.0000 </r>
       <r>   -1.5437    1.0000 </r>
       <r>   -1.5437    1.0000 </r>
       <r>   -1.5437    1.0000 </r>
       <r>   -1.3438    1.0000 </r>
       <r>   -1.3438    1.0000 </r>
       <r>   -1.3438    1.0000 </r>
       <r>   -1.3438    1.0000 </r>
       <r>   -1.3438    1.0000 </r>
       <r>   -1.3438    1.0000 </r>
       <r>   -1.3438    1.0000 </r>
       <r>   -1.3438    1.0000 </r>
       <r>   -1.1554    1.0000 </r>
       <r>   -1.1554    1.0000 </r>
       <r>   -1.1554    1.0000 </r>
       <r>   -1.1554    1.0000 </r>
       <r>   -1.1554    1.0000 </r>
       <r>   -1.1554    1.0000 </r>
       <r>   -1.1554    1.0000 </r>
       <r>   -1.1554    1.0000 </r>
       <r>   -0.8196    1.0000 </r>
       <r>   -0.8196    1.0000 </r>
       <r>   -0.8196    1.0000 </r>
       <r>   -0.8196    1.0000 </r>
       <r>   -0.8196    1.0000 </r>
       <r>   -0.8196    1.0000 </r>
       <r>   -0.8196    1.0000 </r>
       <r>   -0.8196    1.0000 </r>
       <r>   -0.7831    1.0000 </r>
       <r>   -0.7831    1.0000 </r>
       <r>   -0.7831    1.0000 </r>
       <r>   -0.7831    1.0000 </r>
       <r>   -0.7831    1.0000 </r>
       <r>   -0.7831    1.0000 </r>
       <r>   -0.7831    1.0000 </r>
       <r>   -0.7831    1.0000 </r>
       <r>   -0.7099    1.0000 </r>
       <r>   -0.7099    1.0000 </r>
       <r>   -0.7099    1.0000 </r>
       <r>   -0.7099    1.0000 </r>
       <r>   -0.7099    1.0000 </r>
       <r>   -0.7099    1.0000 </r>
       <r>   -0.7099    1.0000 </r>
       <r>   -0.7099    1.0000 </r>
       <r>   -0.6954    1.0000 </r>
       <r>   -0.6953    1.0000 </r>
       <r>   -0.6953    1.0000 </r>
       <r>   -0.6953    1.0000 </r>
       <r>   -0.6953    1.0000 </r>
       <r>   -0.6953    1.0000 </r>
       <r>   -0.6953    1.0000 </r>
       <r>   -0.6953    1.0000 </r>
       <r>   -0.5572    1.0000 </r>
       <r>   -0.5572    1.0000 </r>
       <r>   -0.5572    1.0000 </r>
       <r>   -0.5572    1.0000 </r>
       <r>   -0.5572    1.0000 </r>
       <r>   -0.5571    1.0000 </r>
       <r>   -0.5571    1.0000 </r>
       <r>   -0.5571    1.0000 </r>
       <r>   -0.4124    1.0000 </r>
       <r>   -0.4124    1.0000 </r>
       <r>   -0.4124    1.0000 </r>
       <r>   -0.4124    1.0000 </r>
       <r>   -0.4124    1.0000 </r>
       <r>   -0.4124    1.0000 </r>
       <r>   -0.4124    1.0000 </r>
       <r>   -0.4124    1.0000 </r>
       <r>   -0.4045    1.0000 </r>
       <r>   -0.4045    1.0000 </r>
       <r>   -0.4045    1.0000 </r>
       <r>   -0.4045    1.0000 </r>
       <r>   -0.4045    1.0000 </r>
       <r>   -0.4045    1.0000 </r>
       <r>   -0.4045    1.0000 </r>
       <r>   -0.4045    1.0000 </r>
       <r>   -0.3714    1.0000 </r>
       <r>   -0.3714    1.0000 </r>
       <r>   -0.3714    1.0000 </r>
       <r>   -0.3714    1.0000 </r>
       <r>   -0.3714    1.0000 </r>
       <r>   -0.3714    1.0000 </r>
       <r>   -0.3714    1.0000 </r>
       <r>   -0.3714    1.0000 </r>
       <r>   -0.3259    1.0000 </r>
       <r>   -0.3259    1.0000 </r>
       <r>   -0.3259    1.0000 </r>
       <r>   -0.3259    1.0000 </r>
       <r>   -0.3259    1.0000 </r>
       <r>   -0.3259    1.0000 </r>
       <r>   -0.3259    1.0000 </r>
       <r>   -0.3259    1.0000 </r>
       <r>   -0.2161    1.0000 </r>
       <r>   -0.2161    1.0000 </r>
       <r>   -0.2161    1.0000 </r>
       <r>   -0.2161    1.0000 </r>
       <r>   -0.2161    1.0000 </r>
       <r>   -0.2160    1.0000 </r>
       <r>   -0.2160    1.0000 </r>
       <r>   -0.2160    1.0000 </r>
       <r>   -0.2043    1.0000 </r>
       <r>   -0.2043    1.0000 </r>
       <r>   -0.2043    1.0000 </r>
       <r>   -0.2043    1.0000 </r>
       <r>   -0.2043    1.0000 </r>
       <r>   -0.2043    1.0000 </r>
       <r>   -0.2043    1.0000 </r>
       <r>   -0.2043    1.0000 </r>
       <r>   -0.0485    1.0000 </r>
       <r>   -0.0485    1.0000 </r>
       <r>   -0.0485    1.0000 </r>
       <r>   -0.0485    1.0000 </r>
       <r>   -0.0484    1.0000 </r>
       <r>   -0.0484    1.0000 </r>
       <r>   -0.0484    1.0000 </r>
       <r>   -0.0484    1.0000 </r>
       <r>   -0.0283    1.0000 </r>
       <r>   -0.0283    1.0000 </r>
       <r>   -0.0283    1.0000 </r>
       <r>   -0.0283    1.0000 </r>
       <r>   -0.0283    1.0000 </r>
       <r>   -0.0283    1.0000 </r>
       <r>   -0.0283    1.0000 </r>
       <r>   -0.0283    1.0000 </r>
       <r>   -0.0215    1.0000 </r>
       <r>   -0.0215    1.0000 </r>
       <r>   -0.0215    1.0000 </r>
       <r>   -0.0215    1.0000 </r>
       <r>   -0.0215    1.0000 </r>
       <r>   -0.0215    1.0000 </r>
       <r>   -0.0215    1.0000 </r>
       <r>   -0.0215    1.0000 </r>
       <r>    0.1593    1.0000 </r>
       <r>    0.1593    1.0000 </r>
       <r>    0.1593    1.0000 </r>
       <r>    0.1593    1.0000 </r>
       <r>    0.1593    1.0000 </r>
       <r>    0.1593    1.0000 </r>
       <r>    0.1593    1.0000 </r>
       <r>    0.1593    1.0000 </r>
       <r>    0.7506    1.0000 </r>
       <r>    0.7506    1.0000 </r>
       <r>    0.7506    1.0000 </r>
       <r>    0.7506    1.0000 </r>
       <r>    0.7506    1.0000 </r>
       <r>    0.7507    1.0000 </r>
       <r>    0.7507    1.0000 </r>
       <r>    0.7507    1.0000 </r>
       <r>    0.8033    1.0000 </r>
       <r>    0.8033    1.0000 </r>
       <r>    0.8033    1.0000 </r>
       <r>    0.8033    1.0000 </r>
       <r>    0.8033    1.0000 </r>
       <r>    0.8033    1.0000 </r>
       <r>    0.8033    1.0000 </r>
       <r>    0.8034    1.0000 </r>
       <r>    0.8096    1.0000 </r>
       <r>    0.8096    1.0000 </r>
       <r>    0.8096    1.0000 </r>
       <r>    0.8096    1.0000 </r>
       <r>    0.8096    1.0000 </r>
       <r>    0.8096    1.0000 </r>
       <r>    0.8096    1.0000 </r>
       <r>    0.8096    1.0000 </r>
       <r>    0.9014    1.0000 </r>
       <r>    0.9014    1.0000 </r>
       <r>    0.9014    1.0000 </r>
       <r>    0.9014    1.0000 </r>
       <r>    0.9014    1.0000 </r>
       <r>    0.9015    1.0000 </r>
       <r>    0.9015    1.0000 </r>
       <r>    0.9015    1.0000 </r>
       <r>    0.9932    1.0000 </r>
       <r>    0.9932    1.0000 </r>
       <r>    0.9932    1.0000 </r>
       <r>    0.9932    1.0000 </r>
       <r>    0.9932    1.0000 </r>
       <r>    0.9932    1.0000 </r>
       <r>    0.9932    1.0000 </r>
       <r>    0.9932    1.0000 </r>
       <r>    1.0070    1.0000 </r>
       <r>    1.0070    1.0000 </r>
       <r>    1.0070    1.0000 </r>
       <r>    1.0070    1.0000 </r>
       <r>    1.0071    1.0000 </r>
       <r>    1.0071    1.0000 </r>
       <r>    1.0071    1.0000 </r>
       <r>    1.0071    1.0000 </r>
       <r>    1.0141    1.0000 </r>
       <r>    1.0141    1.0000 </r>
       <r>    1.0141    1.0000 </r>
       <r>    1.0141    1.0000 </r>
       <r>    1.0141    1.0000 </r>
       <r>    1.0141    1.0000 </r>
       <r>    1.0141    1.0000 </r>
       <r>    1.0141    1.0000 </r>
       <r>    1.0231    1.0000 </r>
       <r>    1.0231    1.0000 </r>
       <r>    1.0231    1.0000 </r>
       <r>    1.0231    1.0000 </r>
       <r>    1.0231    1.0000 </r>
       <r>    1.0232    1.0000 </r>
       <r>    1.0232    1.0000 </r>
       <r>    1.0232    1.0000 </r>
       <r>    1.2788    1.0000 </r>
       <r>    1.2788    1.0000 </r>
       <r>    1.2788    1.0000 </r>
       <r>    1.2788    1.0000 </r>
       <r>    1.2788    1.0000 </r>
       <r>    1.2788    1.0000 </r>
       <r>    1.2788    1.0000 </r>
       <r>    1.2788    1.0000 </r>
       <r>    1.2901    1.0000 </r>
       <r>    1.2901    1.0000 </r>
       <r>    1.2901    1.0000 </r>
       <r>    1.2901    1.0000 </r>
       <r>    1.2901    1.0000 </r>
       <r>    1.2901    1.0000 </r>
       <r>    1.2901    1.0000 </r>
       <r>    1.2901    1.0000 </r>
       <r>    1.4725    1.0000 </r>
       <r>    1.4725    1.0000 </r>
       <r>    1.4725    1.0000 </r>
       <r>    1.4725    1.0000 </r>
       <r>    1.4726    1.0000 </r>
       <r>    1.4726    1.0000 </r>
       <r>    1.4726    1.0000 </r>
       <r>    1.4726    1.0000 </r>
       <r>    1.5015    1.0000 </r>
       <r>    1.5015    1.0000 </r>
       <r>    1.5015    1.0000 </r>
       <r>    1.5015    1.0000 </r>
       <r>    1.5016    1.0000 </r>
       <r>    1.5016    1.0000 </r>
       <r>    1.5016    1.0000 </r>
       <r>    1.5016    1.0000 </r>
       <r>    1.6110    1.0000 </r>
       <r>    1.6110    1.0000 </r>
       <r>    1.6110    1.0000 </r>
       <r>    1.6110    1.0000 </r>
       <r>    1.6111    1.0000 </r>
       <r>    1.6111    1.0000 </r>
       <r>    1.6111    1.0000 </r>
       <r>    1.6111    1.0000 </r>
       <r>    1.7871    1.0000 </r>
       <r>    1.7871    1.0000 </r>
       <r>    1.7871    1.0000 </r>
       <r>    1.7871    1.0000 </r>
       <r>    1.7872    1.0000 </r>
       <r>    1.7872    1.0000 </r>
       <r>    1.7872    1.0000 </r>
       <r>    1.7872    1.0000 </r>
       <r>    1.8763    1.0000 </r>
       <r>    1.8763    1.0000 </r>
       <r>    1.8763    1.0000 </r>
       <r>    1.8763    1.0000 </r>
       <r>    1.8763    1.0000 </r>
       <r>    1.8763    1.0000 </r>
       <r>    1.8763    1.0000 </r>
       <r>    1.8763    1.0000 </r>
       <r>    1.9367    1.0000 </r>
       <r>    1.9367    1.0000 </r>
       <r>    1.9367    1.0000 </r>
       <r>    1.9367    1.0000 </r>
       <r>    1.9368    1.0000 </r>
       <r>    1.9368    1.0000 </r>
       <r>    1.9368    1.0000 </r>
       <r>    1.9368    1.0000 </r>
       <r>    2.4421    1.0000 </r>
       <r>    2.4421    1.0000 </r>
       <r>    2.4421    1.0000 </r>
       <r>    2.4421    1.0000 </r>
       <r>    2.4421    1.0000 </r>
       <r>    2.4422    1.0000 </r>
       <r>    2.4422    1.0000 </r>
       <r>    2.4422    1.0000 </r>
       <r>    2.5191    1.0000 </r>
       <r>    2.5191    1.0000 </r>
       <r>    2.5191    1.0000 </r>
       <r>    2.5191    1.0000 </r>
       <r>    2.5191    1.0000 </r>
       <r>    2.5191    1.0000 </r>
       <r>    2.5191    1.0000 </r>
       <r>    2.5191    1.0000 </r>
       <r>    2.5539    1.0000 </r>
       <r>    2.5539    1.0000 </r>
       <r>    2.5539    1.0000 </r>
       <r>    2.5539    1.0000 </r>
       <r>    2.5539    1.0000 </r>
       <r>    2.5540    1.0000 </r>
       <r>    2.5540    1.0000 </r>
       <r>    2.5540    1.0000 </r>
       <r>    2.8738    1.0000 </r>
       <r>    2.8738    1.0000 </r>
       <r>    2.8738    1.0000 </r>
       <r>    2.8738    1.0000 </r>
       <r>    2.8738    1.0000 </r>
       <r>    2.8738    1.0000 </r>
       <r>    2.8738    1.0000 </r>
       <r>    2.8738    1.0000 </r>
       <r>    5.6574    0.0000 </r>
       <r>    5.6574    0.0000 </r>
       <r>    5.6574    0.0000 </r>
       <r>    5.6574    0.0000 </r>
       <r>    5.6574    0.0000 </r>
       <r>    5.6574    0.0000 </r>
       <r>    5.6574    0.0000 </r>
       <r>    5.6574    0.0000 </r>
       <r>    5.7817    0.0000 </r>
       <r>    5.7817    0.0000 </r>
       <r>    5.7817    0.0000 </r>
       <r>    5.7817    0.0000 </r>
       <r>    5.7817    0.0000 </r>
       <r>    5.7817    0.0000 </r>
       <r>    5.7817    0.0000 </r>
       <r>    5.7817    0.0000 </r>
       <r>    6.3937    0.0000 </r>
       <r>    6.3937    0.0000 </r>
       <r>    6.3937    0.0000 </r>
       <r>    6.3937    0.0000 </r>
       <r>    6.3937    0.0000 </r>
       <r>    6.3937    0.0000 </r>
       <r>    6.3937    0.0000 </r>
       <r>    6.3937    0.0000 </r>
       <r>    6.5113    0.0000 </r>
       <r>    6.5113    0.0000 </r>
       <r>    6.5113    0.0000 </r>
       <r>    6.5113    0.0000 </r>
       <r>    6.5113    0.0000 </r>
       <r>    6.5113    0.0000 </r>
       <r>    6.5113    0.0000 </r>
       <r>    6.5113    0.0000 </r>
       <r>    7.0339    0.0000 </r>
       <r>    7.0339    0.0000 </r>
       <r>    7.0339    0.0000 </r>
       <r>    7.0339    0.0000 </r>
       <r>    7.0340    0.0000 </r>
       <r>    7.0340    0.0000 </r>
       <r>    7.0340    0.0000 </r>
       <r>    7.0340    0.0000 </r>
       <r>    7.2631    0.0000 </r>
       <r>    7.2631    0.0000 </r>
       <r>    7.2631    0.0000 </r>
       <r>    7.2631    0.0000 </r>
       <r>    7.2631    0.0000 </r>
       <r>    7.2631    0.0000 </r>
       <r>    7.2631    0.0000 </r>
       <r>    7.2631    0.0000 </r>
       <r>    7.3076    0.0000 </r>
       <r>    7.3076    0.0000 </r>
       <r>    7.3076    0.0000 </r>
       <r>    7.3076    0.0000 </r>
       <r>    7.3076    0.0000 </r>
       <r>    7.3076    0.0000 </r>
       <r>    7.3076    0.0000 </r>
       <r>    7.3076    0.0000 </r>
       <r>    7.3843    0.0000 </r>
       <r>    7.3843    0.0000 </r>
       <r>    7.3843    0.0000 </r>
       <r>    7.3843    0.0000 </r>
       <r>    7.3843    0.0000 </r>
       <r>    7.3843    0.0000 </r>
       <r>    7.3843    0.0000 </r>
       <r>    7.3843    0.0000 </r>
       <r>    8.0675    0.0000 </r>
       <r>    8.0675    0.0000 </r>
       <r>    8.0675    0.0000 </r>
       <r>    8.0675    0.0000 </r>
       <r>    8.0675    0.0000 </r>
       <r>    8.0675    0.0000 </r>
       <r>    8.0675    0.0000 </r>
       <r>    8.0675    0.0000 </r>
       <r>    8.3903    0.0000 </r>
       <r>    8.3903    0.0000 </r>
       <r>    8.3903    0.0000 </r>
       <r>    8.3903    0.0000 </r>
       <r>    8.3903    0.0000 </r>
       <r>    8.3903    0.0000 </r>
       <r>    8.3903    0.0000 </r>
       <r>    8.3903    0.0000 </r>
       <r>    8.4852    0.0000 </r>
       <r>    8.4852    0.0000 </r>
       <r>    8.4852    0.0000 </r>
       <r>    8.4852    0.0000 </r>
       <r>    8.4852    0.0000 </r>
       <r>    8.4852    0.0000 </r>
       <r>    8.4852    0.0000 </r>
       <r>    8.4852    0.0000 </r>
       <r>    8.7937    0.0000 </r>
       <r>    8.7937    0.0000 </r>
       <r>    8.7937    0.0000 </r>
       <r>    8.7937    0.0000 </r>
       <r>    8.7937    0.0000 </r>
       <r>    8.7937    0.0000 </r>
       <r>    8.7937    0.0000 </r>
       <r>    8.7937    0.0000 </r>
       <r>    9.2334    0.0000 </r>
       <r>    9.2337    0.0000 </r>
       <r>    9.2339    0.0000 </r>
       <r>    9.2352    0.0000 </r>
       <r>    9.2377    0.0000 </r>
       <r>    9.2384    0.0000 </r>
       <r>    9.2409    0.0000 </r>
       <r>    9.2457    0.0000 </r>
       <r>    9.2696    0.0000 </r>
       <r>    9.2700    0.0000 </r>
       <r>    9.2708    0.0000 </r>
       <r>    9.2724    0.0000 </r>
       <r>    9.2783    0.0000 </r>
       <r>    9.2827    0.0000 </r>
       <r>    9.3040    0.0000 </r>
       <r>    9.3316    0.0000 </r>
       <r>    9.3437    0.0000 </r>
       <r>    9.3454    0.0000 </r>
       <r>    9.3494    0.0000 </r>
      </set>
     </set>
    </set>
   </array>
  </eigenvalues>
  <separator name="orbital magnetization" >
   <v name="MAGDIPOLOUT">      0.00000000      0.00000000      0.00000000</v>
  </separator>
  <dos>
   <i name="efermi">      3.20064800 </i>
   <total>
    <array>
     <dimension dim="1">gridpoints</dimension>
     <dimension dim="2">spin</dimension>
     <field>energy</field>
     <field>total</field>
     <field>integrated</field>
     <set>
      <set comment="spin 1">
       <r>   -14.8251     0.0000     0.0000 </r>
       <r>   -14.7398     0.0000     0.0000 </r>
       <r>   -14.6545     0.0000     0.0000 </r>
       <r>   -14.5691     0.0000     0.0000 </r>
       <r>   -14.4838     0.0000     0.0000 </r>
       <r>   -14.3985     0.0000     0.0000 </r>
       <r>   -14.3132     0.0000     0.0000 </r>
       <r>   -14.2278     0.0000     0.0000 </r>
       <r>   -14.1425     0.0000     0.0000 </r>
       <r>   -14.0572     0.0000     0.0000 </r>
       <r>   -13.9718     0.0000     0.0000 </r>
       <r>   -13.8865     0.0000     0.0000 </r>
       <r>   -13.8012     0.0000     0.0000 </r>
       <r>   -13.7159     0.0000     0.0000 </r>
       <r>   -13.6305   722.9889    61.6920 </r>
       <r>   -13.5452   324.3358    92.5082 </r>
       <r>   -13.4599   241.7118   113.4260 </r>
       <r>   -13.3745   349.8965   144.3094 </r>
       <r>   -13.2892   461.8880   192.4401 </r>
       <r>   -13.2039  1494.9160   320.0000 </r>
       <r>   -13.1186     0.0000   320.0000 </r>
       <r>   -13.0332     0.0000   320.0000 </r>
       <r>   -12.9479     0.0000   320.0000 </r>
       <r>   -12.8626     0.0000   320.0000 </r>
       <r>   -12.7772     0.0000   320.0000 </r>
       <r>   -12.6919     0.0000   320.0000 </r>
       <r>   -12.6066     0.0000   320.0000 </r>
       <r>   -12.5212     0.0000   320.0000 </r>
       <r>   -12.4359     0.0000   320.0000 </r>
       <r>   -12.3506     0.0000   320.0000 </r>
       <r>   -12.2653     0.0000   320.0000 </r>
       <r>   -12.1799     0.0000   320.0000 </r>
       <r>   -12.0946     0.0000   320.0000 </r>
       <r>   -12.0093     0.0070   320.0006 </r>
       <r>   -11.9239     8.2184   320.7019 </r>
       <r>   -11.8386     0.0000   320.7500 </r>
       <r>   -11.7533    22.9129   322.7051 </r>
       <r>   -11.6680     0.0000   324.2500 </r>
       <r>   -11.5826    51.3554   328.6321 </r>
       <r>   -11.4973     5.8597   329.7500 </r>
       <r>   -11.4120    24.3351   331.8265 </r>
       <r>   -11.3266    59.7544   336.9253 </r>
       <r>   -11.2413    29.2675   340.2474 </r>
       <r>   -11.1560   104.3219   349.2411 </r>
       <r>   -11.0707    20.6113   351.0087 </r>
       <r>   -10.9853     0.8375   352.3215 </r>
       <r>   -10.9000    71.2302   358.3995 </r>
       <r>   -10.8147   151.1523   371.2972 </r>
       <r>   -10.7293    10.1320   372.7535 </r>
       <r>   -10.6440    89.2904   380.3726 </r>
       <r>   -10.5587   242.4627   401.0776 </r>
       <r>   -10.4733   202.6821   419.9504 </r>
       <r>   -10.3880   204.5285   438.3426 </r>
       <r>   -10.3027    83.7294   448.0000 </r>
       <r>   -10.2174     0.0000   448.0000 </r>
       <r>   -10.1320     0.0000   448.0000 </r>
       <r>   -10.0467     0.0000   448.0000 </r>
       <r>    -9.9614     0.0000   448.0000 </r>
       <r>    -9.8760     0.0000   448.0000 </r>
       <r>    -9.7907     0.0000   448.0000 </r>
       <r>    -9.7054     0.0000   448.0000 </r>
       <r>    -9.6201     0.0000   448.0000 </r>
       <r>    -9.5347     0.0000   448.0000 </r>
       <r>    -9.4494     0.0000   448.0000 </r>
       <r>    -9.3641     0.0000   448.0000 </r>
       <r>    -9.2787     0.0000   448.0000 </r>
       <r>    -9.1934     0.0000   448.0000 </r>
       <r>    -9.1081     0.0000   448.0000 </r>
       <r>    -9.0228     0.0000   448.0000 </r>
       <r>    -8.9374     0.0000   448.0000 </r>
       <r>    -8.8521     0.0000   448.0000 </r>
       <r>    -8.7668     0.0000   448.0000 </r>
       <r>    -8.6814     0.0000   448.0000 </r>
       <r>    -8.5961     0.0000   448.0000 </r>
       <r>    -8.5108     0.0000   448.0000 </r>
       <r>    -8.4254     0.0000   448.0000 </r>
       <r>    -8.3401     0.0000   448.0000 </r>
       <r>    -8.2548     0.0000   448.0000 </r>
       <r>    -8.1695     0.0000   448.0000 </r>
       <r>    -8.0841     0.0000   448.0000 </r>
       <r>    -7.9988     0.0000   448.0000 </r>
       <r>    -7.9135     0.0000   448.0000 </r>
       <r>    -7.8281     0.0000   448.0000 </r>
       <r>    -7.7428     0.0000   448.0000 </r>
       <r>    -7.6575     0.0000   448.0000 </r>
       <r>    -7.5722     0.0000   448.0000 </r>
       <r>    -7.4868     0.0000   448.0000 </r>
       <r>    -7.4015     0.0000   448.0000 </r>
       <r>    -7.3162     0.0000   448.0000 </r>
       <r>    -7.2308     0.0000   448.0000 </r>
       <r>    -7.1455     0.0000   448.0000 </r>
       <r>    -7.0602     0.0000   448.0000 </r>
       <r>    -6.9749     0.0000   448.0000 </r>
       <r>    -6.8895     0.0000   448.0000 </r>
       <r>    -6.8042     0.0000   448.0000 </r>
       <r>    -6.7189     0.0000   448.0000 </r>
       <r>    -6.6335     0.0000   448.0000 </r>
       <r>    -6.5482     0.0000   448.0000 </r>
       <r>    -6.4629     0.0000   448.0000 </r>
       <r>    -6.3775     0.0000   448.0000 </r>
       <r>    -6.2922     0.0000   448.0000 </r>
       <r>    -6.2069     0.0000   448.0000 </r>
       <r>    -6.1216     0.0000   448.0000 </r>
       <r>    -6.0362     0.0000   448.0000 </r>
       <r>    -5.9509     0.0000   448.0000 </r>
       <r>    -5.8656     0.0000   448.0000 </r>
       <r>    -5.7802     0.0000   448.0000 </r>
       <r>    -5.6949     0.0000   448.0000 </r>
       <r>    -5.6096     0.0000   448.0000 </r>
       <r>    -5.5243     0.0000   448.0000 </r>
       <r>    -5.4389     0.0000   448.0000 </r>
       <r>    -5.3536     0.0000   448.0000 </r>
       <r>    -5.2683     0.0000   448.0000 </r>
       <r>    -5.1829     0.0000   448.0000 </r>
       <r>    -5.0976     0.0000   448.0000 </r>
       <r>    -5.0123     0.0000   448.0000 </r>
       <r>    -4.9270     0.0000   448.0000 </r>
       <r>    -4.8416     0.0000   448.0000 </r>
       <r>    -4.7563     0.0000   448.0000 </r>
       <r>    -4.6710     0.0000   448.0000 </r>
       <r>    -4.5856     0.0000   448.0000 </r>
       <r>    -4.5003     0.0000   448.0000 </r>
       <r>    -4.4150     0.0000   448.0000 </r>
       <r>    -4.3297     0.0000   448.0000 </r>
       <r>    -4.2443     0.0000   448.0000 </r>
       <r>    -4.1590     0.0000   448.0000 </r>
       <r>    -4.0737     0.0000   448.0000 </r>
       <r>    -3.9883     0.0000   448.0000 </r>
       <r>    -3.9030     2.9081   448.2481 </r>
       <r>    -3.8177     5.8597   448.7500 </r>
       <r>    -3.7323    16.6875   450.1739 </r>
       <r>    -3.6470    50.8104   455.2500 </r>
       <r>    -3.5617   167.5852   469.5499 </r>
       <r>    -3.4764    14.4030   472.0404 </r>
       <r>    -3.3910    86.3593   480.1331 </r>
       <r>    -3.3057    11.7887   481.2559 </r>
       <r>    -3.2204    56.0130   486.0355 </r>
       <r>    -3.1350    99.6997   494.7128 </r>
       <r>    -3.0497    81.9054   501.7389 </r>
       <r>    -2.9644     6.9968   502.3482 </r>
       <r>    -2.8791    54.2568   506.9779 </r>
       <r>    -2.7937    52.5261   511.7500 </r>
       <r>    -2.7084     2.9298   512.0000 </r>
       <r>    -2.6231     0.0000   512.0000 </r>
       <r>    -2.5377     0.0000   512.0000 </r>
       <r>    -2.4524     0.0000   512.0000 </r>
       <r>    -2.3671     0.0000   512.0000 </r>
       <r>    -2.2818     0.0000   512.0000 </r>
       <r>    -2.1964    11.7193   513.0000 </r>
       <r>    -2.1111    43.4941   516.7113 </r>
       <r>    -2.0258    58.5867   521.9992 </r>
       <r>    -1.9404    70.8708   528.0473 </r>
       <r>    -1.8551    34.1207   531.0000 </r>
       <r>    -1.7698     9.5438   531.8144 </r>
       <r>    -1.6844   189.3554   548.4362 </r>
       <r>    -1.5991    29.8186   551.3012 </r>
       <r>    -1.5138    47.1920   555.3281 </r>
       <r>    -1.4285    16.7050   556.7535 </r>
       <r>    -1.3431   122.0136   567.1649 </r>
       <r>    -1.2578    56.9884   575.6128 </r>
       <r>    -1.1725    55.5757   580.8717 </r>
       <r>    -1.0871   127.4618   591.7479 </r>
       <r>    -1.0018    23.4410   593.7503 </r>
       <r>    -0.9165    81.7086   600.7225 </r>
       <r>    -0.8312    95.3895   608.8905 </r>
       <r>    -0.7458   109.7585   618.7354 </r>
       <r>    -0.6605   243.1491   640.0244 </r>
       <r>    -0.5752   134.6988   655.4137 </r>
       <r>    -0.4898   165.6497   669.5841 </r>
       <r>    -0.4045   352.8973   702.9864 </r>
       <r>    -0.3192   217.8647   724.2698 </r>
       <r>    -0.2339   181.6439   741.7511 </r>
       <r>    -0.1485   300.8384   771.1750 </r>
       <r>    -0.0632    83.6769   779.6499 </r>
       <r>     0.0221   226.5855   798.9851 </r>
       <r>     0.1075   230.4432   818.8619 </r>
       <r>     0.1928   138.0394   831.1080 </r>
       <r>     0.2781    10.4537   832.0000 </r>
       <r>     0.3635     0.0000   832.0000 </r>
       <r>     0.4488     0.0000   832.0000 </r>
       <r>     0.5341     0.0000   832.0000 </r>
       <r>     0.6194     0.0000   832.0000 </r>
       <r>     0.7048    20.4722   833.7469 </r>
       <r>     0.7901   272.7971   857.0303 </r>
       <r>     0.8754   439.3045   897.2899 </r>
       <r>     0.9608   242.7547   919.4658 </r>
       <r>     1.0461   250.8163   941.6759 </r>
       <r>     1.1314   156.9984   955.8717 </r>
       <r>     1.2167    88.9959   964.7106 </r>
       <r>     1.3021   195.3629   981.6054 </r>
       <r>     1.3874    67.8864   988.5427 </r>
       <r>     1.4727    80.5558   995.6750 </r>
       <r>     1.5581   175.3770  1013.6714 </r>
       <r>     1.6434   222.2870  1033.2179 </r>
       <r>     1.7287    88.1141  1041.2694 </r>
       <r>     1.8140    61.0682  1047.9609 </r>
       <r>     1.8994   136.0702  1059.5718 </r>
       <r>     1.9847   112.8155  1069.6733 </r>
       <r>     2.0700   150.2328  1082.5756 </r>
       <r>     2.1554    53.6598  1087.3288 </r>
       <r>     2.2407    59.0467  1092.3727 </r>
       <r>     2.3260    64.1873  1098.8157 </r>
       <r>     2.4114   122.7067  1111.2402 </r>
       <r>     2.4967   112.3652  1121.3380 </r>
       <r>     2.5820   107.2749  1131.2942 </r>
       <r>     2.6673    26.2748  1133.9921 </r>
       <r>     2.7527    92.2057  1141.8599 </r>
       <r>     2.8380    16.2905  1143.2500 </r>
       <r>     2.9233    48.1485  1147.3585 </r>
       <r>     3.0087    45.5246  1151.2443 </r>
       <r>     3.0940     0.7769  1151.3163 </r>
       <r>     3.1793     8.0126  1152.0000 </r>
       <r>     3.2646     0.0000  1152.0000 </r>
       <r>     3.3500     0.0000  1152.0000 </r>
       <r>     3.4353     0.0000  1152.0000 </r>
       <r>     3.5206     0.0000  1152.0000 </r>
       <r>     3.6060     0.0000  1152.0000 </r>
       <r>     3.6913     0.0000  1152.0000 </r>
       <r>     3.7766     0.0000  1152.0000 </r>
       <r>     3.8619     0.0000  1152.0000 </r>
       <r>     3.9473     0.0000  1152.0000 </r>
       <r>     4.0326     0.0000  1152.0000 </r>
       <r>     4.1179     0.0000  1152.0000 </r>
       <r>     4.2033     1.7555  1152.1498 </r>
       <r>     4.2886     0.0000  1152.2500 </r>
       <r>     4.3739     0.0000  1152.2500 </r>
       <r>     4.4593     0.0000  1152.2500 </r>
       <r>     4.5446     0.0000  1152.2500 </r>
       <r>     4.6299     0.0000  1152.2500 </r>
       <r>     4.7152     5.8591  1152.7500 </r>
       <r>     4.8006     0.0000  1152.7500 </r>
       <r>     4.8859     0.0000  1152.7500 </r>
       <r>     4.9712     0.0000  1152.7500 </r>
       <r>     5.0566     0.0000  1152.7500 </r>
       <r>     5.1419     0.0000  1152.7500 </r>
       <r>     5.2272     0.0000  1152.7500 </r>
       <r>     5.3125     0.0000  1152.7500 </r>
       <r>     5.3979     0.0000  1152.7500 </r>
       <r>     5.4832    15.6274  1154.0835 </r>
       <r>     5.5685    47.9748  1158.3452 </r>
       <r>     5.6539    30.3753  1161.8419 </r>
       <r>     5.7392     0.0011  1163.2501 </r>
       <r>     5.8245    65.0898  1168.8041 </r>
       <r>     5.9098     0.0000  1169.2500 </r>
       <r>     5.9952    70.3250  1175.2508 </r>
       <r>     6.0805    35.0970  1178.2499 </r>
       <r>     6.1658    31.2825  1180.9194 </r>
       <r>     6.2512    62.7773  1186.4924 </r>
       <r>     6.3365    27.3162  1188.8309 </r>
       <r>     6.4218    65.7649  1197.6117 </r>
       <r>     6.5072    83.7355  1205.6701 </r>
       <r>     6.5925    48.8421  1211.6677 </r>
       <r>     6.6778    36.2470  1215.1178 </r>
       <r>     6.7631     0.0000  1215.2500 </r>
       <r>     6.8485     0.0777  1215.2566 </r>
       <r>     6.9338    66.0100  1220.8892 </r>
       <r>     7.0191    55.2624  1226.3928 </r>
       <r>     7.1045    89.8196  1234.7628 </r>
       <r>     7.1898    70.1648  1240.7499 </r>
       <r>     7.2751    59.3281  1245.8124 </r>
       <r>     7.3604    53.0634  1251.2827 </r>
       <r>     7.4458    81.5968  1258.2453 </r>
       <r>     7.5311    68.6797  1264.1106 </r>
       <r>     7.6164    44.1874  1268.2504 </r>
       <r>     7.7018    38.7929  1271.5605 </r>
       <r>     7.7871    21.6780  1274.0998 </r>
       <r>     7.8724    38.9241  1278.1263 </r>
       <r>     7.9577     0.0000  1278.7500 </r>
       <r>     8.0431    37.0750  1281.9136 </r>
       <r>     8.1284   149.6895  1294.6869 </r>
       <r>     8.2137    52.0549  1300.1918 </r>
       <r>     8.2991    31.1880  1304.2500 </r>
       <r>     8.3844    22.2192  1306.1459 </r>
       <r>     8.4697   123.1366  1316.6611 </r>
       <r>     8.5551    54.3747  1321.9389 </r>
       <r>     8.6404    53.4263  1326.5130 </r>
       <r>     8.7257    20.8684  1328.5328 </r>
       <r>     8.8110   115.8741  1338.4203 </r>
       <r>     8.8964   105.0173  1347.3952 </r>
       <r>     8.9817   106.3412  1356.4997 </r>
       <r>     9.0670    66.1036  1362.1408 </r>
       <r>     9.1524    86.2998  1369.5047 </r>
       <r>     9.2377    33.7350  1372.3833 </r>
       <r>     9.3230    58.2213  1378.2503 </r>
       <r>     9.4083    23.6220  1380.5447 </r>
       <r>     9.4937     2.3528  1381.2500 </r>
       <r>     9.5790     0.0297  1381.2525 </r>
       <r>     9.6643     8.7598  1382.0000 </r>
       <r>     9.7497     0.0000  1382.0000 </r>
       <r>     9.8350     0.0000  1382.0000 </r>
       <r>     9.9203     0.0000  1382.0000 </r>
       <r>    10.0056     0.0000  1382.0000 </r>
       <r>    10.0910     0.0000  1382.0000 </r>
       <r>    10.1763     0.0000  1382.0000 </r>
       <r>    10.2616     0.0000  1382.0000 </r>
       <r>    10.3470     0.0000  1382.0000 </r>
       <r>    10.4323     0.0000  1382.0000 </r>
       <r>    10.5176     0.0000  1382.0000 </r>
       <r>    10.6030     0.0000  1382.0000 </r>
       <r>    10.6883     0.0000  1382.0000 </r>
       <r>    10.7736     0.0000  1382.0000 </r>
      </set>
     </set>
    </array>
   </total>
  </dos>
 </calculation>
 <structure name="finalpos" >
  <crystal>
   <varray name="basis" >
    <v>      11.56480026       0.00000000       0.00000000 </v>
    <v>       0.00000000      11.56480026       0.00000000 </v>
    <v>       0.00000000       0.00000000      23.23839951 </v>
   </varray>
   <i name="volume">   3108.01056530 </i>
   <varray name="rec_basis" >
    <v>       0.08646928       0.00000000       0.00000000 </v>
    <v>       0.00000000       0.08646928       0.00000000 </v>
    <v>       0.00000000       0.00000000       0.04303222 </v>
   </varray>
  </crystal>
  <varray name="positions" >
   <v>       0.00000000       0.25000000       0.12500000 </v>
   <v>       0.00000000       0.25000000       0.62500000 </v>
   <v>       0.00000000       0.75000000       0.12500000 </v>
   <v>       0.00000000       0.75000000       0.62500000 </v>
   <v>       0.50000000       0.25000000       0.12500000 </v>
   <v>       0.50000000       0.25000000       0.62500000 </v>
   <v>       0.50000000       0.75000000       0.12500000 </v>
   <v>       0.50000000       0.75000000       0.62500000 </v>
   <v>       0.00000000       0.00000000       0.00000000 </v>
   <v>       0.00000000       0.00000000       0.50000000 </v>
   <v>       0.00000000       0.50000000       0.00000000 </v>
   <v>       0.00000000       0.50000000       0.50000000 </v>
   <v>       0.50000000       0.00000000       0.00000000 </v>
   <v>       0.50000000       0.00000000       0.50000000 </v>
   <v>       0.50000000       0.50000000       0.00000000 </v>
   <v>       0.50000000       0.50000000       0.50000000 </v>
   <v>       0.25000000       0.00000000       0.37500000 </v>
   <v>       0.25000000       0.00000000       0.87500000 </v>
   <v>       0.25000000       0.50000000       0.37500000 </v>
   <v>       0.25000000       0.50000000       0.87500000 </v>
   <v>       0.75000000       0.00000000       0.37500000 </v>
   <v>       0.75000000       0.00000000       0.87500000 </v>
   <v>       0.75000000       0.50000000       0.37500000 </v>
   <v>       0.75000000       0.50000000       0.87500000 </v>
   <v>       0.25000000       0.25000000       0.25000000 </v>
   <v>       0.25000000       0.25000000       0.75000000 </v>
   <v>       0.25000000       0.75000000       0.25000000 </v>
   <v>       0.25000000       0.75000000       0.75000000 </v>
   <v>       0.75000000       0.25000000       0.25000000 </v>
   <v>       0.75000000       0.25000000       0.75000000 </v>
   <v>       0.75000000       0.75000000       0.25000000 </v>
   <v>       0.75000000       0.75000000       0.75000000 </v>
   <v>       0.00000000       0.25000000       0.37500000 </v>
   <v>       0.00000000       0.25000000       0.87500000 </v>
   <v>       0.00000000       0.75000000       0.37500000 </v>
   <v>       0.00000000       0.75000000       0.87500000 </v>
   <v>       0.50000000       0.25000000       0.37500000 </v>
   <v>       0.50000000       0.25000000       0.87500000 </v>
   <v>       0.50000000       0.75000000       0.37500000 </v>
   <v>       0.50000000       0.75000000       0.87500000 </v>
   <v>       0.00000000       0.00000000       0.25000000 </v>
   <v>       0.00000000       0.00000000       0.75000000 </v>
   <v>       0.00000000       0.50000000       0.25000000 </v>
   <v>       0.00000000       0.50000000       0.75000000 </v>
   <v>       0.50000000       0.00000000       0.25000000 </v>
   <v>       0.50000000       0.00000000       0.75000000 </v>
   <v>       0.50000000       0.50000000       0.25000000 </v>
   <v>       0.50000000       0.50000000       0.75000000 </v>
   <v>       0.25000000       0.00000000       0.12500000 </v>
   <v>       0.25000000       0.00000000       0.62500000 </v>
   <v>       0.25000000       0.50000000       0.12500000 </v>
   <v>       0.25000000       0.50000000       0.62500000 </v>
   <v>       0.75000000       0.00000000       0.12500000 </v>
   <v>       0.75000000       0.00000000       0.62500000 </v>
   <v>       0.75000000       0.50000000       0.12500000 </v>
   <v>       0.75000000       0.50000000       0.62500000 </v>
   <v>       0.25000000       0.25000000       0.00000000 </v>
   <v>       0.25000000       0.25000000       0.50000000 </v>
   <v>       0.25000000       0.75000000       0.00000000 </v>
   <v>       0.25000000       0.75000000       0.50000000 </v>
   <v>       0.75000000       0.25000000       0.00000000 </v>
   <v>       0.75000000       0.25000000       0.50000000 </v>
   <v>       0.75000000       0.75000000       0.00000000 </v>
   <v>       0.75000000       0.75000000       0.50000000 </v>
   <v>       0.37500000       0.13249999       0.18750000 </v>
   <v>       0.37500000       0.13249999       0.68750000 </v>
   <v>       0.37500000       0.63249999       0.18750000 </v>
   <v>       0.37500000       0.63249999       0.68750000 </v>
   <v>       0.87500000       0.13249999       0.18750000 </v>
   <v>       0.87500000       0.13249999       0.68750000 </v>
   <v>       0.87500000       0.63249999       0.18750000 </v>
   <v>       0.87500000       0.63249999       0.68750000 </v>
   <v>       0.12500000       0.38249999       0.43750000 </v>
   <v>       0.12500000       0.38249999       0.93750000 </v>
   <v>       0.12500000       0.88249999       0.43750000 </v>
   <v>       0.12500000       0.88249999       0.93750000 </v>
   <v>       0.62500000       0.38249999       0.43750000 </v>
   <v>       0.62500000       0.38249999       0.93750000 </v>
   <v>       0.62500000       0.88249999       0.43750000 </v>
   <v>       0.62500000       0.88249999       0.93750000 </v>
   <v>       0.12500000       0.36750001       0.18750000 </v>
   <v>       0.12500000       0.36750001       0.68750000 </v>
   <v>       0.12500000       0.86750001       0.18750000 </v>
   <v>       0.12500000       0.86750001       0.68750000 </v>
   <v>       0.62500000       0.36750001       0.18750000 </v>
   <v>       0.62500000       0.36750001       0.68750000 </v>
   <v>       0.62500000       0.86750001       0.18750000 </v>
   <v>       0.62500000       0.86750001       0.68750000 </v>
   <v>       0.37500000       0.11750000       0.43750000 </v>
   <v>       0.37500000       0.11750000       0.93750000 </v>
   <v>       0.37500000       0.61750001       0.43750000 </v>
   <v>       0.37500000       0.61750001       0.93750000 </v>
   <v>       0.87500000       0.11750000       0.43750000 </v>
   <v>       0.87500000       0.11750000       0.93750000 </v>
   <v>       0.87500000       0.61750001       0.43750000 </v>
   <v>       0.87500000       0.61750001       0.93750000 </v>
   <v>       0.11750000       0.12500000       0.06250000 </v>
   <v>       0.11750000       0.12500000       0.56250000 </v>
   <v>       0.11750000       0.62500000       0.06250000 </v>
   <v>       0.11750000       0.62500000       0.56250000 </v>
   <v>       0.61750001       0.12500000       0.06250000 </v>
   <v>       0.61750001       0.12500000       0.56250000 </v>
   <v>       0.61750001       0.62500000       0.06250000 </v>
   <v>       0.61750001       0.62500000       0.56250000 </v>
   <v>       0.38249999       0.37500000       0.06250000 </v>
   <v>       0.38249999       0.37500000       0.56250000 </v>
   <v>       0.38249999       0.87500000       0.06250000 </v>
   <v>       0.38249999       0.87500000       0.56250000 </v>
   <v>       0.88249999       0.37500000       0.06250000 </v>
   <v>       0.88249999       0.37500000       0.56250000 </v>
   <v>       0.88249999       0.87500000       0.06250000 </v>
   <v>       0.88249999       0.87500000       0.56250000 </v>
   <v>       0.36750001       0.37500000       0.31250000 </v>
   <v>       0.36750001       0.37500000       0.81250000 </v>
   <v>       0.36750001       0.87500000       0.31250000 </v>
   <v>       0.36750001       0.87500000       0.81250000 </v>
   <v>       0.86750001       0.37500000       0.31250000 </v>
   <v>       0.86750001       0.37500000       0.81250000 </v>
   <v>       0.86750001       0.87500000       0.31250000 </v>
   <v>       0.86750001       0.87500000       0.81250000 </v>
   <v>       0.13249999       0.12500000       0.31250000 </v>
   <v>       0.13249999       0.12500000       0.81250000 </v>
   <v>       0.13249999       0.62500000       0.31250000 </v>
   <v>       0.13249999       0.62500000       0.81250000 </v>
   <v>       0.63249999       0.12500000       0.31250000 </v>
   <v>       0.63249999       0.12500000       0.81250000 </v>
   <v>       0.63249999       0.62500000       0.31250000 </v>
   <v>       0.63249999       0.62500000       0.81250000 </v>
  </varray>
 </structure>
</modeling>
