 running    4 mpi-ranks, with    1 threads/rank, on    1 nodes
 distrk:  each k-point on    2 cores,    2 groups
 distr:  one band on    1 cores,    2 groups
 Offloading initialized ...    4 GPUs detected
 vasp.6.5.1 10Mar25 (build Sep 17 2025 13:25:28) complex                         
 POSCAR found type information on POSCAR CuInSe
 POSCAR found :  3 types and     128 ions
 Reading from existing POTCAR
 scaLAPACK will be used selectively (only on CPU)
 Reading from existing POTCAR
 -----------------------------------------------------------------------------
|                                                                             |
|               ----> ADVICE to this user running VASP <----                  |
|                                                                             |
|     You have a (more or less) 'large supercell' and for larger cells it     |
|     might be more efficient to use real-space projection operators.         |
|     Therefore, try LREAL= Auto in the INCAR file.                           |
|     Mind: If you want to do very accurate calculations, keep the            |
|     reciprocal projection scheme (i.e. LREAL=.FALSE.).                      |
|                                                                             |
 -----------------------------------------------------------------------------

Warning: ieee_invalid is signaling
Warning: ieee_invalid is signaling
Warning: ieee_divide_by_zero is signaling
Warning: ieee_underflow is signaling
Warning: ieee_inexact is signaling
FORTRAN STOP
Warning: ieee_divide_by_zero is signaling
Warning: ieee_underflow is signaling
Warning: ieee_inexact is signaling
Warning: ieee_invalid is signaling
Warning: ieee_divide_by_zero is signaling
Warning: ieee_underflow is signaling
Warning: ieee_inexact is signaling
FORTRAN STOP
FORTRAN STOP
Warning: ieee_invalid is signaling
Warning: ieee_divide_by_zero is signaling
Warning: ieee_underflow is signaling
Warning: ieee_inexact is signaling
FORTRAN STOP
 LDA part: xc-table for (Slater+PW92), standard interpolation
 POSCAR, INCAR and KPOINTS ok, starting setup
 FFT: planning ... GRIDC
 FFT: planning ... GRID_SOFT
 FFT: planning ... GRID
 WAVECAR not read
 WARNING: random wavefunctions but no delay for mixing, default for NELMDL
 entering main loop
       N       E                     dE             d eps       ncg     rms          rms(c)
DAV:   1    -0.670485867675E+05   -0.67049E+05   -0.51682E+05  8304   0.212E+03
DAV:   2    -0.789849896490E+05   -0.11936E+05   -0.11675E+05  8304   0.575E+02
DAV:   3    -0.818097686141E+05   -0.28248E+04   -0.26430E+04  8704   0.245E+02
DAV:   4    -0.821727372439E+05   -0.36297E+03   -0.35542E+03  9864   0.822E+01
DAV:   5    -0.673740361098E+03    0.81499E+05   -0.65303E+02 10048   0.863E+01    0.194E+01
DAV:   6    -0.668733002594E+03    0.50074E+01   -0.55646E+01 11736   0.189E+01    0.127E+01
DAV:   7    -0.666011401957E+03    0.27216E+01   -0.22039E+01 11976   0.172E+01    0.605E+00
DAV:   8    -0.666464789447E+03   -0.45339E+00   -0.76250E+00  9848   0.432E+00    0.382E+00
DAV:   9    -0.666417306199E+03    0.47483E-01   -0.51066E-01 10328   0.198E+00    0.253E+00
DAV:  10    -0.666361343131E+03    0.55963E-01   -0.17692E-01 11160   0.114E+00    0.142E+00
DAV:  11    -0.666352323520E+03    0.90196E-02   -0.48354E-02 10800   0.362E-01    0.819E-01
DAV:  12    -0.666353164347E+03   -0.84083E-03   -0.99670E-03 10240   0.159E-01    0.490E-01
DAV:  13    -0.666354453979E+03   -0.12896E-02   -0.22213E-03 10432   0.108E-01    0.298E-01
DAV:  14    -0.666355483149E+03   -0.10292E-02   -0.11673E-03 10080   0.903E-02    0.186E-01
DAV:  15    -0.666356203000E+03   -0.71985E-03   -0.60911E-04  9272   0.723E-02    0.116E-01
DAV:  16    -0.666356636897E+03   -0.43390E-03   -0.32231E-04  8200   0.533E-02    0.741E-02
DAV:  17    -0.666356877690E+03   -0.24079E-03   -0.15938E-04  8280   0.411E-02    0.477E-02
DAV:  18    -0.666357005531E+03   -0.12784E-03   -0.79413E-05  7744   0.305E-02    0.310E-02
DAV:  19    -0.666357073036E+03   -0.67505E-04   -0.41090E-05  7656   0.224E-02    0.203E-02
DAV:  20    -0.666357107810E+03   -0.34774E-04   -0.19829E-05  5776   0.166E-02    0.134E-02
DAV:  21    -0.666357125796E+03   -0.17985E-04   -0.12638E-05  5224   0.134E-02    0.899E-03
DAV:  22    -0.666357135259E+03   -0.94638E-05   -0.89103E-06  5072   0.121E-02
   1 F= -.66635714E+03 E0= -.66635714E+03  d E =-.131302E-25
 writing wavefunctions
