 vasp.6.5.1 10Mar25 (build Sep 17 2025 13:25:28) complex                         
 executed on              LinuxNV date 2026.02.13  13:00:27
 running    4 mpi-ranks, with    1 threads/rank, on    1 nodes
 distrk:  each k-point on    2 cores,    2 groups
 distr:  one band on NCORE=   1 cores,    2 groups
 Offloading initialized ...    4 GPUs detected


--------------------------------------------------------------------------------------------------------


 INCAR:
   SYSTEM = CuInSe
   ISTART = 1
   ENCUT = 600
   ISMEAR = 0
   SIGMA = 0.01
   LMAXMIX = 4
   PREC = accurate
   KPAR = 2
   LHFCALC = .TRUE.
   PRECFOCK = Normal
   AEXX = 0.25
   HFSCREEN = 0.2
   ALGO = Normal
   TIME = 0.4
   NKRED = 2
   NELMIN = 3
   EDIFF = 1E-5

 POTCAR:   PAW_PBE Cu 05Jan2001                   
 POTCAR:   PAW_PBE In_d 06Sep2000                 
 POTCAR:   PAW_PBE Se 06Sep2000                   
 POTCAR:   PAW_PBE Cu 05Jan2001                   
   VRHFIN =Cu: d10 p1                                                                               
   LEXCH  = PE                                                                                      
   EATOM  =  1390.9800 eV,  102.2341 Ry                                                             
                                                                                                    
   TITEL  = PAW_PBE Cu 05Jan2001                                                                    
   LULTRA =        F    use ultrasoft PP ?                                                          
   IUNSCR =        1    unscreen: 0-lin 1-nonlin 2-no                                               
   RPACOR =    2.000    partial core radius                                                         
   POMASS =   63.546; ZVAL   =   11.000    mass and valenz                                          
   RCORE  =    2.300    outmost cutoff radius                                                       
   RWIGS  =    2.480; RWIGS  =    1.312    wigner-seitz radius (au A)                               
   ENMAX  =  273.214; ENMIN  =  204.910 eV                                                          
   RCLOC  =    1.712    cutoff for local pot                                                        
   LCOR   =        T    correct aug charges                                                         
   LPAW   =        T    paw PP                                                                      
   EAUG   =  516.456                                                                                
   DEXC   =    -.008                                                                                
   RMAX   =    2.789    core radius for proj-oper                                                   
   RAUG   =    1.300    factor for augmentation sphere                                              
   RDEP   =    2.302    radius for radial grids                                                     
   QCUT   =   -4.481; QGAM   =    8.962    optimization parameters                                  
                                                                                                    
   Description                                                                                      
     l     E      TYP  RCUT    TYP  RCUT                                                            
     2   .000     23  2.300                                                                         
     2   .000     23  2.300                                                                         
     0   .000     23  2.300                                                                         
     0   .000     23  2.300                                                                         
     1  -.200     23  2.300                                                                         
     1   .000     23  2.300                                                                         
     3   .000      7   .000                                                                         
  local pseudopotential read in
  partial core-charges read in
  atomic valenz-charges read in
  non local Contribution for L=            2  read in
    real space projection operators read in
  non local Contribution for L=            2  read in
    real space projection operators read in
  non local Contribution for L=            0  read in
    real space projection operators read in
  non local Contribution for L=            0  read in
    real space projection operators read in
  non local Contribution for L=            1  read in
    real space projection operators read in
  non local Contribution for L=            1  read in
    real space projection operators read in
    PAW grid and wavefunctions read in
 
   number of l-projection  operators is LMAX  =            6
   number of lm-projection operators is LMMAX =           18
 
 POTCAR:   PAW_PBE In_d 06Sep2000                 
   VRHFIN =In: s2p1                                                                                 
   LEXCH  = PE                                                                                      
   EATOM  =  1576.8738 eV,  115.8970 Ry                                                             
                                                                                                    
   TITEL  = PAW_PBE In_d 06Sep2000                                                                  
   LULTRA =        F    use ultrasoft PP ?                                                          
   IUNSCR =        1    unscreen: 0-lin 1-nonlin 2-no                                               
   RPACOR =    2.200    partial core radius                                                         
   POMASS =  114.820; ZVAL   =   13.000    mass and valenz                                          
   RCORE  =    2.500    outmost cutoff radius                                                       
   RWIGS  =    3.170; RWIGS  =    1.677    wigner-seitz radius (au A)                               
   ENMAX  =  239.218; ENMIN  =  179.413 eV                                                          
   ICORE  =        3    local potential                                                             
   LCOR   =        T    correct aug charges                                                         
   LPAW   =        T    paw PP                                                                      
   EAUG   =  449.704                                                                                
   DEXC   =    -.003                                                                                
   RMAX   =    2.981    core radius for proj-oper                                                   
   RAUG   =    1.300    factor for augmentation sphere                                              
   RDEP   =    2.630    radius for radial grids                                                     
   QCUT   =   -4.193; QGAM   =    8.386    optimization parameters                                  
                                                                                                    
   Description                                                                                      
     l     E      TYP  RCUT    TYP  RCUT                                                            
     2   .000     23  2.500                                                                         
     2  -.100     23  2.500                                                                         
     0   .000     23  2.500                                                                         
     0   .000     23  2.500                                                                         
     1   .000     23  2.500                                                                         
     1   .000     23  2.500                                                                         
     3  -.100      7  2.500                                                                         
  local pseudopotential read in
  partial core-charges read in
  atomic valenz-charges read in
  non local Contribution for L=            2  read in
    real space projection operators read in
  non local Contribution for L=            2  read in
    real space projection operators read in
  non local Contribution for L=            0  read in
    real space projection operators read in
  non local Contribution for L=            0  read in
    real space projection operators read in
  non local Contribution for L=            1  read in
    real space projection operators read in
  non local Contribution for L=            1  read in
    real space projection operators read in
    PAW grid and wavefunctions read in
 
   number of l-projection  operators is LMAX  =            6
   number of lm-projection operators is LMMAX =           18
 
 POTCAR:   PAW_PBE Se 06Sep2000                   
   VRHFIN =Se: s2p4                                                                                 
   LEXCH  = PE                                                                                      
   EATOM  =   256.9644 eV,   18.8864 Ry                                                             
                                                                                                    
   TITEL  = PAW_PBE Se 06Sep2000                                                                    
   LULTRA =        F    use ultrasoft PP ?                                                          
   IUNSCR =        1    unscreen: 0-lin 1-nonlin 2-no                                               
   RPACOR =    1.900    partial core radius                                                         
   POMASS =   78.960; ZVAL   =    6.000    mass and valenz                                          
   RCORE  =    2.100    outmost cutoff radius                                                       
   RWIGS  =    2.200; RWIGS  =    1.164    wigner-seitz radius (au A)                               
   ENMAX  =  211.534; ENMIN  =  158.651 eV                                                          
   ICORE  =        3    local potential                                                             
   LCOR   =        T    correct aug charges                                                         
   LPAW   =        T    paw PP                                                                      
   EAUG   =  446.842                                                                                
   DEXC   =    -.031                                                                                
   RMAX   =    3.170    core radius for proj-oper                                                   
   RAUG   =    1.300    factor for augmentation sphere                                              
   RDEP   =    2.177    radius for radial grids                                                     
   QCUT   =   -3.943; QGAM   =    7.886    optimization parameters                                  
                                                                                                    
   Description                                                                                      
     l     E      TYP  RCUT    TYP  RCUT                                                            
     0   .000     23  2.100                                                                         
     0   .000     23  2.100                                                                         
     1   .000     23  2.100                                                                         
     1   .000     23  2.100                                                                         
     2   .000     23  2.100                                                                         
     3  -.100      7  2.100                                                                         
  local pseudopotential read in
  partial core-charges read in
  atomic valenz-charges read in
  non local Contribution for L=            0  read in
    real space projection operators read in
  non local Contribution for L=            0  read in
    real space projection operators read in
  non local Contribution for L=            1  read in
    real space projection operators read in
  non local Contribution for L=            1  read in
    real space projection operators read in
  non local Contribution for L=            2  read in
    real space projection operators read in
    PAW grid and wavefunctions read in
 
   number of l-projection  operators is LMAX  =            5
   number of lm-projection operators is LMMAX =           13
 
 -----------------------------------------------------------------------------
|                                                                             |
|               ----> ADVICE to this user running VASP <----                  |
|                                                                             |
|     You have a (more or less) 'large supercell' and for larger cells it     |
|     might be more efficient to use real-space projection operators.         |
|     Therefore, try LREAL= Auto in the INCAR file.                           |
|     Mind: If you want to do very accurate calculations, keep the            |
|     reciprocal projection scheme (i.e. LREAL=.FALSE.).                      |
|                                                                             |
 -----------------------------------------------------------------------------

 PAW_PBE Cu 05Jan2001                   :
 energy of atom  1       EATOM=-1390.9800
 kinetic energy error for atom=    0.0021 (will be added to EATOM!!)
 PAW_PBE In_d 06Sep2000                 :
 energy of atom  2       EATOM=-1576.8738
 kinetic energy error for atom=    0.0011 (will be added to EATOM!!)
 PAW_PBE Se 06Sep2000                   :
 energy of atom  3       EATOM= -256.9644
 kinetic energy error for atom=    0.0006 (will be added to EATOM!!)
 
 
 POSCAR: Cu1-In1-Se2 'I -4 2 d'  #122
  positions in direct lattice
  No initial velocities read in


 exchange-correlation table for PE
   RHO(1)=    0.500       N(1)  =     2000
   RHO(2)=  100.500       N(2)  =     4000
 


--------------------------------------------------------------------------------------------------------


 ion  position               nearest neighbor table
   1  0.000  0.250  0.125-  97 2.46  81 2.46  69 2.46 109 2.46
   2  0.000  0.250  0.625-  98 2.46  82 2.46  70 2.46 110 2.46
   3  0.000  0.750  0.125-  99 2.46  83 2.46  71 2.46 111 2.46
   4  0.000  0.750  0.625- 100 2.46  84 2.46  72 2.46 112 2.46
   5  0.500  0.250  0.125-  65 2.46  85 2.46 101 2.46 105 2.46
   6  0.500  0.250  0.625-  66 2.46  86 2.46 102 2.46 106 2.46
   7  0.500  0.750  0.125-  67 2.46  87 2.46 103 2.46 107 2.46
   8  0.500  0.750  0.625-  68 2.46  88 2.46 104 2.46 108 2.46
   9  0.000  0.000  0.000-  94 2.46  97 2.46  76 2.46 111 2.46
  10  0.000  0.000  0.500-  93 2.46  98 2.46  75 2.46 112 2.46
  11  0.000  0.500  0.000-  99 2.46  96 2.46  74 2.46 109 2.46
  12  0.000  0.500  0.500- 100 2.46  95 2.46  73 2.46 110 2.46
  13  0.500  0.000  0.000-  90 2.46  80 2.46 101 2.46 107 2.46
  14  0.500  0.000  0.500-  89 2.46  79 2.46 102 2.46 108 2.46
  15  0.500  0.500  0.000-  78 2.46  92 2.46 103 2.46 105 2.46
  16  0.500  0.500  0.500-  77 2.46  91 2.46 104 2.46 106 2.46
  17  0.250  0.000  0.375-  89 2.46  75 2.46 115 2.46 121 2.46
  18  0.250  0.000  0.875-  90 2.46  76 2.46 116 2.46 122 2.46
  19  0.250  0.500  0.375-  73 2.46  91 2.46 113 2.46 123 2.46
  20  0.250  0.500  0.875-  74 2.46  92 2.46 114 2.46 124 2.46
  21  0.750  0.000  0.375-  93 2.46  79 2.46 119 2.46 125 2.46
  22  0.750  0.000  0.875-  94 2.46  80 2.46 120 2.46 126 2.46
  23  0.750  0.500  0.375-  77 2.46  95 2.46 117 2.46 127 2.46
  24  0.750  0.500  0.875-  78 2.46  96 2.46 118 2.46 128 2.46
  25  0.250  0.250  0.250-  65 2.46  81 2.46 113 2.46 121 2.46
  26  0.250  0.250  0.750-  66 2.46  82 2.46 114 2.46 122 2.46
  27  0.250  0.750  0.250-  67 2.46  83 2.46 115 2.46 123 2.46
  28  0.250  0.750  0.750-  68 2.46  84 2.46 116 2.46 124 2.46
  29  0.750  0.250  0.250-  69 2.46  85 2.46 117 2.46 125 2.46
  30  0.750  0.250  0.750-  70 2.46  86 2.46 118 2.46 126 2.46
  31  0.750  0.750  0.250-  71 2.46  87 2.46 119 2.46 127 2.46
  32  0.750  0.750  0.750-  72 2.46  88 2.46 120 2.46 128 2.46
  33  0.000  0.250  0.375-  73 2.56 117 2.56 121 2.56  93 2.56
  34  0.000  0.250  0.875-  74 2.56 118 2.56 122 2.56  94 2.56
  35  0.000  0.750  0.375-  75 2.56  95 2.56 119 2.56 123 2.56
  36  0.000  0.750  0.875-  76 2.56  96 2.56 120 2.56 124 2.56
  37  0.500  0.250  0.375-  77 2.56 113 2.56 125 2.56  89 2.56
  38  0.500  0.250  0.875-  78 2.56 114 2.56 126 2.56  90 2.56
  39  0.500  0.750  0.375-  79 2.56  91 2.56 115 2.56 127 2.56
  40  0.500  0.750  0.875-  80 2.56  92 2.56 116 2.56 128 2.56
  41  0.000  0.000  0.250-  69 2.56  83 2.56 119 2.56 121 2.56
  42  0.000  0.000  0.750-  70 2.56  84 2.56 120 2.56 122 2.56
  43  0.000  0.500  0.250-  71 2.56  81 2.56 117 2.56 123 2.56
  44  0.000  0.500  0.750-  72 2.56  82 2.56 118 2.56 124 2.56
  45  0.500  0.000  0.250-  65 2.56  87 2.56 115 2.56 125 2.56
  46  0.500  0.000  0.750-  66 2.56  88 2.56 116 2.56 126 2.56
  47  0.500  0.500  0.250-  67 2.56  85 2.56 113 2.56 127 2.56
  48  0.500  0.500  0.750-  68 2.56  86 2.56 114 2.56 128 2.56
  49  0.250  0.000  0.125-  65 2.56  83 2.56 107 2.56  97 2.56
  50  0.250  0.000  0.625-  66 2.56  84 2.56 108 2.56  98 2.56
  51  0.250  0.500  0.125-  67 2.56  81 2.56 105 2.56  99 2.56
  52  0.250  0.500  0.625-  68 2.56  82 2.56 106 2.56 100 2.56
  53  0.750  0.000  0.125-  69 2.56  87 2.56 101 2.56 111 2.56
  54  0.750  0.000  0.625-  70 2.56  88 2.56 102 2.56 112 2.56
  55  0.750  0.500  0.125-  71 2.56  85 2.56 103 2.56 109 2.56
  56  0.750  0.500  0.625-  72 2.56  86 2.56 104 2.56 110 2.56
  57  0.250  0.250  0.000-  74 2.56 105 2.56  97 2.56  90 2.56
  58  0.250  0.250  0.500-  73 2.56 106 2.56  98 2.56  89 2.56
  59  0.250  0.750  0.000-  76 2.56  92 2.56 107 2.56  99 2.56
  60  0.250  0.750  0.500-  75 2.56  91 2.56 108 2.56 100 2.56
  61  0.750  0.250  0.000-  78 2.56 101 2.56 109 2.56  94 2.56
  62  0.750  0.250  0.500-  77 2.56 102 2.56 110 2.56  93 2.56
  63  0.750  0.750  0.000-  80 2.56  96 2.56 103 2.56 111 2.56
  64  0.750  0.750  0.500-  79 2.56  95 2.56 104 2.56 112 2.56
  65  0.375  0.132  0.188-   5 2.46  25 2.46  45 2.56  49 2.56
  66  0.375  0.132  0.688-   6 2.46  26 2.46  46 2.56  50 2.56
  67  0.375  0.632  0.188-   7 2.46  27 2.46  47 2.56  51 2.56
  68  0.375  0.632  0.688-   8 2.46  28 2.46  48 2.56  52 2.56
  69  0.875  0.132  0.188-   1 2.46  29 2.46  41 2.56  53 2.56
  70  0.875  0.132  0.688-   2 2.46  30 2.46  42 2.56  54 2.56
  71  0.875  0.632  0.188-   3 2.46  31 2.46  43 2.56  55 2.56
  72  0.875  0.632  0.688-   4 2.46  32 2.46  44 2.56  56 2.56
  73  0.125  0.382  0.438-  12 2.46  19 2.46  33 2.56  58 2.56
  74  0.125  0.382  0.938-  11 2.46  20 2.46  34 2.56  57 2.56
  75  0.125  0.882  0.438-  10 2.46  17 2.46  35 2.56  60 2.56
  76  0.125  0.882  0.938-   9 2.46  18 2.46  36 2.56  59 2.56
  77  0.625  0.382  0.438-  16 2.46  23 2.46  37 2.56  62 2.56
  78  0.625  0.382  0.938-  15 2.46  24 2.46  38 2.56  61 2.56
  79  0.625  0.882  0.438-  14 2.46  21 2.46  39 2.56  64 2.56
  80  0.625  0.882  0.938-  13 2.46  22 2.46  40 2.56  63 2.56
  81  0.125  0.368  0.188-   1 2.46  25 2.46  43 2.56  51 2.56
  82  0.125  0.368  0.688-   2 2.46  26 2.46  44 2.56  52 2.56
  83  0.125  0.868  0.188-   3 2.46  27 2.46  41 2.56  49 2.56
  84  0.125  0.868  0.688-   4 2.46  28 2.46  42 2.56  50 2.56
  85  0.625  0.368  0.188-   5 2.46  29 2.46  47 2.56  55 2.56
  86  0.625  0.368  0.688-   6 2.46  30 2.46  48 2.56  56 2.56
  87  0.625  0.868  0.188-   7 2.46  31 2.46  45 2.56  53 2.56
  88  0.625  0.868  0.688-   8 2.46  32 2.46  46 2.56  54 2.56
  89  0.375  0.117  0.438-  14 2.46  17 2.46  37 2.56  58 2.56
  90  0.375  0.117  0.938-  13 2.46  18 2.46  38 2.56  57 2.56
  91  0.375  0.618  0.438-  16 2.46  19 2.46  39 2.56  60 2.56
  92  0.375  0.618  0.938-  15 2.46  20 2.46  40 2.56  59 2.56
  93  0.875  0.117  0.438-  10 2.46  21 2.46  33 2.56  62 2.56
  94  0.875  0.117  0.938-   9 2.46  22 2.46  34 2.56  61 2.56
  95  0.875  0.618  0.438-  12 2.46  23 2.46  35 2.56  64 2.56
  96  0.875  0.618  0.938-  11 2.46  24 2.46  36 2.56  63 2.56
  97  0.117  0.125  0.063-   1 2.46   9 2.46  49 2.56  57 2.56
  98  0.117  0.125  0.563-   2 2.46  10 2.46  50 2.56  58 2.56
  99  0.117  0.625  0.063-   3 2.46  11 2.46  51 2.56  59 2.56
 100  0.117  0.625  0.563-   4 2.46  12 2.46  52 2.56  60 2.56
 101  0.618  0.125  0.063-   5 2.46  13 2.46  53 2.56  61 2.56
 102  0.618  0.125  0.563-   6 2.46  14 2.46  54 2.56  62 2.56
 103  0.618  0.625  0.063-   7 2.46  15 2.46  55 2.56  63 2.56
 104  0.618  0.625  0.563-   8 2.46  16 2.46  56 2.56  64 2.56
 105  0.382  0.375  0.063-   5 2.46  15 2.46  51 2.56  57 2.56
 106  0.382  0.375  0.563-   6 2.46  16 2.46  52 2.56  58 2.56
 107  0.382  0.875  0.063-   7 2.46  13 2.46  49 2.56  59 2.56
 108  0.382  0.875  0.563-   8 2.46  14 2.46  50 2.56  60 2.56
 109  0.882  0.375  0.063-   1 2.46  11 2.46  55 2.56  61 2.56
 110  0.882  0.375  0.563-   2 2.46  12 2.46  56 2.56  62 2.56
 111  0.882  0.875  0.063-   3 2.46   9 2.46  53 2.56  63 2.56
 112  0.882  0.875  0.563-   4 2.46  10 2.46  54 2.56  64 2.56
 113  0.368  0.375  0.313-  19 2.46  25 2.46  37 2.56  47 2.56
 114  0.368  0.375  0.813-  20 2.46  26 2.46  38 2.56  48 2.56
 115  0.368  0.875  0.313-  17 2.46  27 2.46  39 2.56  45 2.56
 116  0.368  0.875  0.813-  18 2.46  28 2.46  40 2.56  46 2.56
 117  0.868  0.375  0.313-  23 2.46  29 2.46  33 2.56  43 2.56
 118  0.868  0.375  0.813-  24 2.46  30 2.46  34 2.56  44 2.56
 119  0.868  0.875  0.313-  21 2.46  31 2.46  35 2.56  41 2.56
 120  0.868  0.875  0.813-  22 2.46  32 2.46  36 2.56  42 2.56
 121  0.132  0.125  0.313-  17 2.46  25 2.46  33 2.56  41 2.56
 122  0.132  0.125  0.813-  18 2.46  26 2.46  34 2.56  42 2.56
 123  0.132  0.625  0.313-  19 2.46  27 2.46  35 2.56  43 2.56
 124  0.132  0.625  0.813-  20 2.46  28 2.46  36 2.56  44 2.56
 125  0.632  0.125  0.313-  21 2.46  29 2.46  37 2.56  45 2.56
 126  0.632  0.125  0.813-  22 2.46  30 2.46  38 2.56  46 2.56
 127  0.632  0.625  0.313-  23 2.46  31 2.46  39 2.56  47 2.56
 128  0.632  0.625  0.813-  24 2.46  32 2.46  40 2.56  48 2.56
 
  LATTYP: Found a simple tetragonal cell.
 ALAT       =    11.5648002625
 C/A-ratio  =     2.0094077700
  
  Lattice vectors:
  
 A1 = (  11.5648002625,   0.0000000000,   0.0000000000)
 A2 = (   0.0000000000,  11.5648002625,   0.0000000000)
 A3 = (   0.0000000000,   0.0000000000,  23.2383995056)


Analysis of symmetry for initial positions (statically):
=====================================================================
 Subroutine PRICEL returns following result:
 
  LATTYP: Found a body centered tetragonal cell.
 ALAT       =     5.7824001313
 C/A-ratio  =     2.0094077700
  
  Lattice vectors:
  
 A1 = (   2.8912000656,  -2.8912000656,  -5.8095998764)
 A2 = (  -2.8912000656,   2.8912000656,  -5.8095998764)
 A3 = (   2.8912000656,   2.8912000656,   5.8095998764)
 
  16 primitive cells build up your supercell.
 

 Routine SETGRP: Setting up the symmetry group for a 
 simple tetragonal supercell.


 Subroutine GETGRP returns: Found  8 space group operations
 (whereof  4 operations were pure point group operations)
 out of a pool of 16 trial point group operations.


The static configuration has the point symmetry S_4 .
 The point group associated with its full space group is D_2d.


Analysis of symmetry for dynamics (positions and initial velocities):
=====================================================================
 Subroutine PRICEL returns following result:
 
  LATTYP: Found a body centered tetragonal cell.
 ALAT       =     5.7824001313
 C/A-ratio  =     2.0094077700
  
  Lattice vectors:
  
 A1 = (   2.8912000656,  -2.8912000656,  -5.8095998764)
 A2 = (  -2.8912000656,   2.8912000656,  -5.8095998764)
 A3 = (   2.8912000656,   2.8912000656,   5.8095998764)
 
  16 primitive cells build up your supercell.
 

 Routine SETGRP: Setting up the symmetry group for a 
 simple tetragonal supercell.


 Subroutine GETGRP returns: Found  8 space group operations
 (whereof  4 operations were pure point group operations)
 out of a pool of 16 trial point group operations.


The dynamic configuration has the point symmetry S_4 .
 The point group associated with its full space group is D_2d.


 Subroutine INISYM returns: Found  8 space group operations
 (whereof  4 operations are pure point group operations),
 and found    16 'primitive' translations


----------------------------------------------------------------------------------------

                                     Primitive cell                                     

  volume of cell :     194.2507

  direct lattice vectors                    reciprocal lattice vectors
     2.891200066 -2.891200066 -5.809599876     0.172938568  0.000000000 -0.086064447
    -2.891200066  2.891200066 -5.809599876    -0.000000000  0.172938568 -0.086064447
     2.891200066  2.891200066  5.809599876     0.172938568  0.172938568  0.000000000

  length of vectors
     7.104190761  7.104190761  7.104190761     0.193170488  0.193170488  0.244572069

  position of ions in fractional coordinates (direct lattice)
     0.750000000  0.250000000  0.500000000
     0.000000000  0.000000000  0.000000000
     0.250000000  0.750000000  0.500000000
     0.500000000  0.500000000  0.000000000
     0.375000000  0.889999986  0.014999986
     0.875000000  0.360000014  0.985000014
     0.110000000  0.125000000  0.485000000
     0.639999986  0.625000000  0.514999986

  ion indices of the primitive-cell ions
   primitive index   ion index
                 1           1
                 2           9
                 3          33
                 4          41
                 5          69
                 6          81
                 7          97
                 8         109

----------------------------------------------------------------------------------------

 
 
 KPOINTS: KPOINTS                                 

Automatic generation of k-mesh.
 Grid dimensions read from file:
 generate k-points for:    2    2    2

 Generating k-lattice:

  Cartesian coordinates                     Fractional coordinates (reciprocal lattice)
     0.043234642  0.000000000  0.000000000     0.500000000  0.000000000  0.000000000
     0.000000000  0.043234642  0.000000000     0.000000000  0.500000000  0.000000000
     0.000000000  0.000000000  0.021516112     0.000000000  0.000000000  0.500000000

  Length of vectors
     0.043234642  0.043234642  0.021516112

  Shift w.r.t. Gamma in fractional coordinates (k-lattice)
     0.000000000  0.000000000  0.000000000

 
 Subroutine IBZKPT returns following result:
 ===========================================
 
 Found      6 irreducible k-points:
 
 Following reciprocal coordinates:
            Coordinates               Weight
  0.000000  0.000000  0.000000      1.000000
  0.500000  0.000000  0.000000      2.000000
  0.500000  0.500000  0.000000      1.000000
  0.000000  0.000000  0.500000      1.000000
  0.500000  0.000000  0.500000      2.000000
  0.500000  0.500000  0.500000      1.000000
 
 Following cartesian coordinates:
            Coordinates               Weight
  0.000000  0.000000  0.000000      1.000000
  0.043235  0.000000  0.000000      2.000000
  0.043235  0.043235  0.000000      1.000000
  0.000000  0.000000  0.021516      1.000000
  0.043235  0.000000  0.021516      2.000000
  0.043235  0.043235  0.021516      1.000000
 
 
 Subroutine IBZKPT_HF returns following result:
 ==============================================
 
 Found      8 k-points in 1st BZ
 the following      8 k-points will be used (e.g. in the exchange kernel)
 Following reciprocal coordinates:   # in IRBZ
  0.000000  0.000000  0.000000    0.12500000   1 t-inv F
  0.500000  0.000000  0.000000    0.12500000   2 t-inv F
  0.500000  0.500000  0.000000    0.12500000   3 t-inv F
  0.000000  0.000000  0.500000    0.12500000   4 t-inv F
  0.500000  0.000000  0.500000    0.12500000   5 t-inv F
  0.500000  0.500000  0.500000    0.12500000   6 t-inv F
  0.000000 -0.500000 -0.000000    0.12500000   2 t-inv F
  0.000000 -0.500000 -0.500000    0.12500000   5 t-inv F


--------------------------------------------------------------------------------------------------------




 Dimension of arrays:
   k-points           NKPTS =      6   k-points in BZ     NKDIM =      8   number of bands    NBANDS=    692
   number of dos      NEDOS =    301   number of ions     NIONS =    128
   non local maximal  LDIM  =      6   non local SUM 2l+1 LMDIM =     18
   total plane-waves  NPLWV = ******
   max r-space proj   IRMAX =      1   max aug-charges    IRDMAX=  25025
   dimension x,y,z NGX =    96 NGY =   96 NGZ =  192
   dimension x,y,z NGXF=   192 NGYF=  192 NGZF=  384
   support grid    NGXF=   192 NGYF=  192 NGZF=  384
   ions per type =              32  32  64
   NGX,Y,Z   is equivalent  to a cutoff of  13.80, 13.80, 13.74 a.u.
   NGXF,Y,Z  is equivalent  to a cutoff of  27.60, 27.60, 27.47 a.u.

 SYSTEM =  CuInSe                                  
 POSCAR =  Cu1-In1-Se2 'I -4 2 d'  #122            

 Startparameter for this run:
   NWRITE =      2    write-flag & timer
   PREC   = accura    normal or accurate (medium, high low for compatibility)
   ISTART =      0    job   : 0-new  1-cont  2-samecut
   ICHARG =      2    charge: 1-file 2-atom 10-const
   ISPIN  =      1    spin polarized calculation?
   LNONCOLLINEAR =      F non collinear calculations
   LSORBIT =      F    spin-orbit coupling
   INIWAV =      1    electr: 0-lowe 1-rand  2-diag
   LASPH  =      F    aspherical Exc in radial PAW
 Electronic Relaxation 1
   ENCUT  =  600.0 eV  44.10 Ry    6.64 a.u.  23.10 23.10 46.41*2*pi/ulx,y,z
   ENINI  =  600.0     initial cutoff
   ENAUG  =  516.5 eV  augmentation charge cutoff
   NELM   =     60;   NELMIN=  3; NELMDL=  0     # of ELM steps 
   EDIFF  = 0.1E-04   stopping-criterion for ELM
   LREAL  =      F    real-space projection
   NLSPLINE    = F    spline interpolate recip. space projectors
   LCOMPAT=      F    compatible to vasp.4.4
   GGA_COMPAT  = T    GGA compatible to vasp.4.4-vasp.4.6
   LMAXPAW     = -100 max onsite density
   LMAXMIX     =    4 max onsite mixed and CHGCAR
   VOSKOWN=      0    Vosko Wilk Nusair interpolation
   ROPT   =    0.00000   0.00000   0.00000
 Ionic relaxation
   EDIFFG = 0.1E-03   stopping-criterion for IOM
   NSW    =      0    number of steps for IOM
   NBLOCK =      1;   KBLOCK =      1    inner block; outer block 
   IBRION =     -1    ionic relax: 0-MD 1-quasi-New 2-CG
   NFREE  =      0    steps in history (QN), initial steepest desc. (CG)
   ISIF   =      0    stress and relaxation
   IWAVPR =     10    prediction:  0-non 1-charg 2-wave 3-comb
   ISYM   =      3    0-nonsym 1-usesym 2-fastsym
   LCORR  =      T    Harris-Foulkes like correction to forces

   POTIM  = 0.5000    time-step for ionic-motion
   TEIN   =    0.0    initial temperature
   TEBEG  =    0.0;   TEEND  =   0.0 temperature during run
   SMASS  =  -3.00    Nose mass-parameter (am)
   estimated Nose-frequenzy (Omega)   =  0.10E-29 period in steps = 0.13E+47 mass=  -0.306E-26a.u.
   SCALEE = 1.0000    scale energy and forces
   NPACO  =    256;   APACO  = 10.0  distance and # of slots for P.C.
   PSTRESS=    0.0 pullay stress

  Mass of Ions in am
   POMASS =  63.55114.82 78.96
  Ionic Valenz
   ZVAL   =  11.00 13.00  6.00
  Atomic Wigner-Seitz radii
   RWIGS  =  -1.00 -1.00 -1.00
  virtual crystal weights 
   VCA    =   1.00  1.00  1.00
   NELECT =    1152.0000    total number of electrons
   NUPDOWN=      -1.0000    fix difference up-down

 DOS related values:
   EMIN   =  10.00;   EMAX   =-10.00  energy-range for DOS
   EFERMI =   0.00;   METHOD = LEGACY      
   ISMEAR =     0;   SIGMA  =   0.01  broadening in eV -4-tet -1-fermi 0-gaus
   EFERMI_NEDOS =   21; number of points for ismear=-14 and -15

 Electronic relaxation 2 (details)
   IALGO  =     38    algorithm
   LDIAG  =      T    sub-space diagonalisation (order eigenvalues)
   LSUBROT=      F    optimize rotation matrix (better conditioning)
   LROBUST=      F    robust break criterion during scf (extrapolated energy error)
   ISEARCH=      0    line search for conjugate gradient (0, 1=use gradient)
   TURBO    =      0    0=normal 1=particle mesh
   IRESTART =      0    0=no restart 2=restart with 2 vectors
   NREBOOT  =      0    no. of reboots
   NMIN     =      0    reboot dimension
   EREF     =   0.00    reference energy to select bands
   IMIX   =      1    mixing-type and parameters
     AMIX     =   0.40;   BMIX     =  1.00
     AMIX_MAG =   1.60;   BMIX_MAG =  1.00
     AMIN     =   0.10
     WC   =   100.;   INIMIX=   1;  MIXPRE=   1;  MAXMIX= -45

 Intra band minimization:
   WEIMIN = 0.0000     energy-eigenvalue tresh-hold
   EBREAK =  0.36E-08  absolut break condition
   DEPER  =   0.30     relativ break condition  

   TIME   =   0.40     timestep for ELM

  volume/ion in A,a.u.               =      24.28       163.86
  Fermi-wavevector in a.u.,A,eV,Ry     =   1.175975  2.222271 18.815737  1.382918
  Thomas-Fermi vector in A             =   2.312347
 
 Write flags
   LWAVE        =      T    write WAVECAR
   LDOWNSAMPLE  =      F    k-point downsampling of WAVECAR
   LCHARG       =      T    write CHGCAR
   LVTOT        =      F    write LOCPOT, total local potential
   LVHAR        =      F    write LOCPOT, Hartree potential only
   WRT_POTENTIAL= false  ! write potential to hdf5 file
   LELF         =      F    write electronic localiz. function (ELF)
   LORBIT       =      0    0 simple, 1 ext, 2 COOP (PROOUT), +10 PAW based schemes


 Python interface
   PLUGINS active      =      F    recompile with -DPLUGINS to activate
 
 Dipole corrections
   LMONO      =      F    monopole corrections only (constant potential shift)
   LDIPOL     =      F    correct potential (dipole corrections)
   IDIPOL     =      0    1-x, 2-y, 3-z, 4-all directions 
   EPSILON    =  1.0000000 bulk dielectric constant
   LVACPOTAV  =      F  vacuum potentials using an averaging scheme for the charge density
   VACPOTFLAT =  0.1000000 required flatness to determine vacuum potential
 
Coulomb truncation method
  LTRUNCATE          =      F  Coulomb kernel truncation to be used

 
 Exchange correlation treatment:
   GGA     = PE    functional components
   XC_C    = 1    coefficients multiplying the functional components
   LIBXC   =     F    Libxc                    
   VOSKOWN =     0    Vosko Wilk Nusair interpolation
   EXXOEP  =     0    0=HF, 1=EXX-LHF (local Hartree Fock) 2=EXX OEP
   LHFCALC =     T    Hartree Fock is set to
   LSYMGRAD=     F    symmetrize gradient (conserves proper symmetry)
   PRECFOCK=normal    Normal, Fast or Accurate (Low or Medium for compatibility)
   LRHFCALC=     F    long range Hartree Fock
   LRSCOR  =     F    long range correlation only (use DFT for short range part)
   LTHOMAS =     F    Thomas Fermi screening in HF
   LMODELHF=     F    short range full HF, long range fraction AEXX
   FOCKCORR=     1    mode to apply convergence corrections
   LFOCKACE=     T    use Adeptively-Compressed-Exchange operator
   ENCUT4O =  -1.0   cutoff for four orbital integrals eV
   LMAXFOCK=     4    L truncation for augmentation on plane wave grid
   LMAXFOCKAE=  -1    L truncation for all-electron charge restoration on plane wave grid
   NMAXFOCKAE=   1    number of basis functions for all-electron charge restoration
   LFOCKAEDFT=     F  apply the AE augmentation even for DFT
   NKREDX  =     2    reduce k-point grid by
   NKREDY  =     2    reduce k-point grid by
   NKREDZ  =     2    reduce k-point grid by
   SHIFTRED=     F    shift reduced grid of Gamma
   HFKIDENT=     F    idential grid for each k-point
   ODDONLY =     F    use only odd q-grid points
   EVENONLY=     F    use only even q-grid points
   HFALPHA =   -1.0000 decay constant for conv. correction
   MCALPHA =    0.0000 extent of test-charge in conv. correction in multipole expansion
   AEXX    =    0.2500 exact exchange contribution
   HFSCREEN=    0.2000 screening length (either q_TF or 0.3 A-1)
   HFSCREENC=   0.2000 screening length for correlation (either q_TF or 0.3 A-1)
   HFRCUT  =    0.0000 spherical cutoff for potential kernel
   ALDAX   =    0.7500 LDA exchange part
   AGGAX   =    0.7500 GGA exchange part
   AMGGAX  =    0.7500 meta-GGA exchange part
   ALDAC   =    1.0000 LDA correlation
   AGGAC   =    1.0000 GGA correlation
   AMGGAC  =    1.0000 meta-GGA correlation
   ENCUTFOCK=  -1.0 apply spherical cutoff to Coloumb kernel
   NBANDSGWLOW=     1    first orbital included in HF term
   NBLOCK_FOCK=    64    blocking factor in FOCK_ACC

 Parameters of functionals:
   PE:
     No parameter
 
 Van der Waals corrections
   IVDW    =     0    specifies the selected vdW correction

 Linear response parameters
   LEPSILON=     F    determine dielectric tensor
   LRPA    =     F    only Hartree local field effects (RPA)
   LNABLA  =     F    use nabla operator in PAW spheres
   LVEL    =     F    velocity operator in full k-point grid
   CSHIFT  =0.1000    complex shift for real part using Kramers Kronig
   OMEGAMAX=  -1.0    maximum frequency
   DEG_THRESHOLD= 0.2000000E-02 threshold for treating states as degnerate
   RTIME   =   -0.100 relaxation time in fs
  (WPLASMAI=    0.000 imaginary part of plasma frequency in eV, 0.658/RTIME)
   DFIELD  = 0.0000000 0.0000000 0.0000000 field for delta impulse in time
 
  Optional k-point grid parameters
   LKPOINTS_OPT  =     F    use optional k-point grid
   KPOINTS_OPT_MODE=     1    mode for optional k-point grid
 
 Orbital magnetization related:
   ORBITALMAG=     F  switch on orbital magnetization
   LCHIMAG   =     F  perturbation theory with respect to B field
   DQ        =  0.001000  dq finite difference perturbation B field
   LLRAUG    =     F  two centre corrections for induced B field
   LBONE     =     F  B-component reconstruction in AE one-centre
   LVGVCALC  =     T  calculate vGv susceptibility
   LVGVAPPL  =     F  apply vGv susceptibility instead of pGv for G=0

 Random number generation:
   RANDOM_GENERATOR = DEFAULT
   PCG_SEED         = not used


--------------------------------------------------------------------------------------------------------


 Static calculation
 charge density and potential will be updated during run
 non-spin polarized calculation
 Variant of blocked Davidson
 Davidson routine will perform the subspace rotation
 perform sub-space diagonalisation
    after iterative eigenvector-optimisation
 Kerker-like  mixing scheme
 using additional bands           116
 reciprocal scheme for non local part
 use partial core corrections
 calculate Harris-corrections to forces 
   (improved forces if not selfconsistent)
 use gradient corrections 
 use of overlap-Matrix (Vanderbilt PP)
 Gauss-broadening in eV      SIGMA  =   0.01


--------------------------------------------------------------------------------------------------------


  energy-cutoff  :      600.00
  volume of cell :     3108.01
      direct lattice vectors                 reciprocal lattice vectors
    11.564800263  0.000000000  0.000000000     0.086469284  0.000000000  0.000000000
     0.000000000 11.564800263  0.000000000     0.000000000  0.086469284  0.000000000
     0.000000000  0.000000000 23.238399506     0.000000000  0.000000000  0.043032223

  length of vectors
    11.564800263 11.564800263 23.238399506     0.086469284  0.086469284  0.043032223


 
 k-points in units of 2pi/SCALE and weight: KPOINTS                                 
   0.00000000  0.00000000  0.00000000       0.125
   0.04323464  0.00000000  0.00000000       0.250
   0.04323464  0.04323464  0.00000000       0.125
   0.00000000  0.00000000  0.02151611       0.125
   0.04323464  0.00000000  0.02151611       0.250
   0.04323464  0.04323464  0.02151611       0.125
 
 k-points in reciprocal lattice and weights: KPOINTS                                 
   0.00000000  0.00000000  0.00000000       0.125
   0.50000000  0.00000000  0.00000000       0.250
   0.50000000  0.50000000  0.00000000       0.125
   0.00000000  0.00000000  0.50000000       0.125
   0.50000000  0.00000000  0.50000000       0.250
   0.50000000  0.50000000  0.50000000       0.125
 
 position of ions in fractional coordinates (direct lattice) 
   0.00000000  0.25000000  0.12500000
   0.00000000  0.25000000  0.62500000
   0.00000000  0.75000000  0.12500000
   0.00000000  0.75000000  0.62500000
   0.50000000  0.25000000  0.12500000
   0.50000000  0.25000000  0.62500000
   0.50000000  0.75000000  0.12500000
   0.50000000  0.75000000  0.62500000
   0.00000000  0.00000000  0.00000000
   0.00000000  0.00000000  0.50000000
   0.00000000  0.50000000  0.00000000
   0.00000000  0.50000000  0.50000000
   0.50000000  0.00000000  0.00000000
   0.50000000  0.00000000  0.50000000
   0.50000000  0.50000000  0.00000000
   0.50000000  0.50000000  0.50000000
   0.25000000  0.00000000  0.37500000
   0.25000000  0.00000000  0.87500000
   0.25000000  0.50000000  0.37500000
   0.25000000  0.50000000  0.87500000
   0.75000000  0.00000000  0.37500000
   0.75000000  0.00000000  0.87500000
   0.75000000  0.50000000  0.37500000
   0.75000000  0.50000000  0.87500000
   0.25000000  0.25000000  0.25000000
   0.25000000  0.25000000  0.75000000
   0.25000000  0.75000000  0.25000000
   0.25000000  0.75000000  0.75000000
   0.75000000  0.25000000  0.25000000
   0.75000000  0.25000000  0.75000000
   0.75000000  0.75000000  0.25000000
   0.75000000  0.75000000  0.75000000
   0.00000000  0.25000000  0.37500000
   0.00000000  0.25000000  0.87500000
   0.00000000  0.75000000  0.37500000
   0.00000000  0.75000000  0.87500000
   0.50000000  0.25000000  0.37500000
   0.50000000  0.25000000  0.87500000
   0.50000000  0.75000000  0.37500000
   0.50000000  0.75000000  0.87500000
   0.00000000  0.00000000  0.25000000
   0.00000000  0.00000000  0.75000000
   0.00000000  0.50000000  0.25000000
   0.00000000  0.50000000  0.75000000
   0.50000000  0.00000000  0.25000000
   0.50000000  0.00000000  0.75000000
   0.50000000  0.50000000  0.25000000
   0.50000000  0.50000000  0.75000000
   0.25000000  0.00000000  0.12500000
   0.25000000  0.00000000  0.62500000
   0.25000000  0.50000000  0.12500000
   0.25000000  0.50000000  0.62500000
   0.75000000  0.00000000  0.12500000
   0.75000000  0.00000000  0.62500000
   0.75000000  0.50000000  0.12500000
   0.75000000  0.50000000  0.62500000
   0.25000000  0.25000000  0.00000000
   0.25000000  0.25000000  0.50000000
   0.25000000  0.75000000  0.00000000
   0.25000000  0.75000000  0.50000000
   0.75000000  0.25000000  0.00000000
   0.75000000  0.25000000  0.50000000
   0.75000000  0.75000000  0.00000000
   0.75000000  0.75000000  0.50000000
   0.37500000  0.13249999  0.18750000
   0.37500000  0.13249999  0.68750000
   0.37500000  0.63249999  0.18750000
   0.37500000  0.63249999  0.68750000
   0.87500000  0.13249999  0.18750000
   0.87500000  0.13249999  0.68750000
   0.87500000  0.63249999  0.18750000
   0.87500000  0.63249999  0.68750000
   0.12500000  0.38249999  0.43750000
   0.12500000  0.38249999  0.93750000
   0.12500000  0.88249999  0.43750000
   0.12500000  0.88249999  0.93750000
   0.62500000  0.38249999  0.43750000
   0.62500000  0.38249999  0.93750000
   0.62500000  0.88249999  0.43750000
   0.62500000  0.88249999  0.93750000
   0.12500000  0.36750001  0.18750000
   0.12500000  0.36750001  0.68750000
   0.12500000  0.86750001  0.18750000
   0.12500000  0.86750001  0.68750000
   0.62500000  0.36750001  0.18750000
   0.62500000  0.36750001  0.68750000
   0.62500000  0.86750001  0.18750000
   0.62500000  0.86750001  0.68750000
   0.37500000  0.11750000  0.43750000
   0.37500000  0.11750000  0.93750000
   0.37500000  0.61750001  0.43750000
   0.37500000  0.61750001  0.93750000
   0.87500000  0.11750000  0.43750000
   0.87500000  0.11750000  0.93750000
   0.87500000  0.61750001  0.43750000
   0.87500000  0.61750001  0.93750000
   0.11750000  0.12500000  0.06250000
   0.11750000  0.12500000  0.56250000
   0.11750000  0.62500000  0.06250000
   0.11750000  0.62500000  0.56250000
   0.61750001  0.12500000  0.06250000
   0.61750001  0.12500000  0.56250000
   0.61750001  0.62500000  0.06250000
   0.61750001  0.62500000  0.56250000
   0.38249999  0.37500000  0.06250000
   0.38249999  0.37500000  0.56250000
   0.38249999  0.87500000  0.06250000
   0.38249999  0.87500000  0.56250000
   0.88249999  0.37500000  0.06250000
   0.88249999  0.37500000  0.56250000
   0.88249999  0.87500000  0.06250000
   0.88249999  0.87500000  0.56250000
   0.36750001  0.37500000  0.31250000
   0.36750001  0.37500000  0.81250000
   0.36750001  0.87500000  0.31250000
   0.36750001  0.87500000  0.81250000
   0.86750001  0.37500000  0.31250000
   0.86750001  0.37500000  0.81250000
   0.86750001  0.87500000  0.31250000
   0.86750001  0.87500000  0.81250000
   0.13249999  0.12500000  0.31250000
   0.13249999  0.12500000  0.81250000
   0.13249999  0.62500000  0.31250000
   0.13249999  0.62500000  0.81250000
   0.63249999  0.12500000  0.31250000
   0.63249999  0.12500000  0.81250000
   0.63249999  0.62500000  0.31250000
   0.63249999  0.62500000  0.81250000
 
 position of ions in cartesian coordinates  (Angst):
   0.00000000  2.89120007  2.90479994
   0.00000000  2.89120007 14.52399969
   0.00000000  8.67360020  2.90479994
   0.00000000  8.67360020 14.52399969
   5.78240013  2.89120007  2.90479994
   5.78240013  2.89120007 14.52399969
   5.78240013  8.67360020  2.90479994
   5.78240013  8.67360020 14.52399969
   0.00000000  0.00000000  0.00000000
   0.00000000  0.00000000 11.61919975
   0.00000000  5.78240013  0.00000000
   0.00000000  5.78240013 11.61919975
   5.78240013  0.00000000  0.00000000
   5.78240013  0.00000000 11.61919975
   5.78240013  5.78240013  0.00000000
   5.78240013  5.78240013 11.61919975
   2.89120007  0.00000000  8.71439981
   2.89120007  0.00000000 20.33359957
   2.89120007  5.78240013  8.71439981
   2.89120007  5.78240013 20.33359957
   8.67360020  0.00000000  8.71439981
   8.67360020  0.00000000 20.33359957
   8.67360020  5.78240013  8.71439981
   8.67360020  5.78240013 20.33359957
   2.89120007  2.89120007  5.80959988
   2.89120007  2.89120007 17.42879963
   2.89120007  8.67360020  5.80959988
   2.89120007  8.67360020 17.42879963
   8.67360020  2.89120007  5.80959988
   8.67360020  2.89120007 17.42879963
   8.67360020  8.67360020  5.80959988
   8.67360020  8.67360020 17.42879963
   0.00000000  2.89120007  8.71439981
   0.00000000  2.89120007 20.33359957
   0.00000000  8.67360020  8.71439981
   0.00000000  8.67360020 20.33359957
   5.78240013  2.89120007  8.71439981
   5.78240013  2.89120007 20.33359957
   5.78240013  8.67360020  8.71439981
   5.78240013  8.67360020 20.33359957
   0.00000000  0.00000000  5.80959988
   0.00000000  0.00000000 17.42879963
   0.00000000  5.78240013  5.80959988
   0.00000000  5.78240013 17.42879963
   5.78240013  0.00000000  5.80959988
   5.78240013  0.00000000 17.42879963
   5.78240013  5.78240013  5.80959988
   5.78240013  5.78240013 17.42879963
   2.89120007  0.00000000  2.90479994
   2.89120007  0.00000000 14.52399969
   2.89120007  5.78240013  2.90479994
   2.89120007  5.78240013 14.52399969
   8.67360020  0.00000000  2.90479994
   8.67360020  0.00000000 14.52399969
   8.67360020  5.78240013  2.90479994
   8.67360020  5.78240013 14.52399969
   2.89120007  2.89120007  0.00000000
   2.89120007  2.89120007 11.61919975
   2.89120007  8.67360020  0.00000000
   2.89120007  8.67360020 11.61919975
   8.67360020  2.89120007  0.00000000
   8.67360020  2.89120007 11.61919975
   8.67360020  8.67360020  0.00000000
   8.67360020  8.67360020 11.61919975
   4.33680010  1.53233595  4.35719991
   4.33680010  1.53233595 15.97639966
   4.33680010  7.31473609  4.35719991
   4.33680010  7.31473609 15.97639966
  10.11920023  1.53233595  4.35719991
  10.11920023  1.53233595 15.97639966
  10.11920023  7.31473609  4.35719991
  10.11920023  7.31473609 15.97639966
   1.44560003  4.42353602 10.16679978
   1.44560003  4.42353602 21.78599954
   1.44560003 10.20593615 10.16679978
   1.44560003 10.20593615 21.78599954
   7.22800016  4.42353602 10.16679978
   7.22800016  4.42353602 21.78599954
   7.22800016 10.20593615 10.16679978
   7.22800016 10.20593615 21.78599954
   1.44560003  4.25006418  4.35719991
   1.44560003  4.25006418 15.97639966
   1.44560003 10.03246431  4.35719991
   1.44560003 10.03246431 15.97639966
   7.22800016  4.25006418  4.35719991
   7.22800016  4.25006418 15.97639966
   7.22800016 10.03246431  4.35719991
   7.22800016 10.03246431 15.97639966
   4.33680010  1.35886403 10.16679978
   4.33680010  1.35886403 21.78599954
   4.33680010  7.14126424 10.16679978
   4.33680010  7.14126424 21.78599954
  10.11920023  1.35886403 10.16679978
  10.11920023  1.35886403 21.78599954
  10.11920023  7.14126424 10.16679978
  10.11920023  7.14126424 21.78599954
   1.35886403  1.44560003  1.45239997
   1.35886403  1.44560003 13.07159972
   1.35886403  7.22800016  1.45239997
   1.35886403  7.22800016 13.07159972
   7.14126424  1.44560003  1.45239997
   7.14126424  1.44560003 13.07159972
   7.14126424  7.22800016  1.45239997
   7.14126424  7.22800016 13.07159972
   4.42353602  4.33680010  1.45239997
   4.42353602  4.33680010 13.07159972
   4.42353602 10.11920023  1.45239997
   4.42353602 10.11920023 13.07159972
  10.20593615  4.33680010  1.45239997
  10.20593615  4.33680010 13.07159972
  10.20593615 10.11920023  1.45239997
  10.20593615 10.11920023 13.07159972
   4.25006418  4.33680010  7.26199985
   4.25006418  4.33680010 18.88119960
   4.25006418 10.11920023  7.26199985
   4.25006418 10.11920023 18.88119960
  10.03246431  4.33680010  7.26199985
  10.03246431  4.33680010 18.88119960
  10.03246431 10.11920023  7.26199985
  10.03246431 10.11920023 18.88119960
   1.53233595  1.44560003  7.26199985
   1.53233595  1.44560003 18.88119960
   1.53233595  7.22800016  7.26199985
   1.53233595  7.22800016 18.88119960
   7.31473609  1.44560003  7.26199985
   7.31473609  1.44560003 18.88119960
   7.31473609  7.22800016  7.26199985
   7.31473609  7.22800016 18.88119960
 


--------------------------------------------------------------------------------------------------------


 k-point     1 :   0.0000 0.0000 0.0000  plane waves:  103737
 k-point     2 :   0.5000 0.0000 0.0000  plane waves:  103746
 k-point     3 :   0.5000 0.5000 0.0000  plane waves:  103776
 k-point     4 :   0.0000 0.0000 0.5000  plane waves:  103620
 k-point     5 :   0.5000 0.0000 0.5000  plane waves:  103728
 k-point     6 :   0.5000 0.5000 0.5000  plane waves:  103688

 maximum and minimum number of plane-waves per node :    103776   103620

 maximum number of plane-waves:    103776
 maximum index in each direction: 
   IXMAX=   23   IYMAX=   23   IZMAX=   46
   IXMIN=  -23   IYMIN=  -23   IZMIN=  -46


 serial   3D FFT for wavefunctions
 parallel 3D FFT for charge:
    minimum data exchange during FFTs selected (reduces bandwidth)


 FFT grid for exact exchange (Hartree Fock) 
  NGX = 70; NGY = 70; NGZ =140

 
 Radii for the augmentation spheres in the non-local exchange
 for species   1 augmentation radius   1.218 (default was   1.005)
       energy cutoff for augmentation   2400.0
 for species   2 augmentation radius   1.347 (default was   1.077)
       energy cutoff for augmentation   2400.0
 for species   3 augmentation radius   1.152 (default was   1.081)
       energy cutoff for augmentation   2400.0
 Maximum index for augmentation-charges in exchange          2277
  SETUP_FOCK is finished

 total amount of memory used by VASP MPI-rank0  4850440. kBytes
=======================================================================

   base                                    :      30000. kBytes
   nonl-proj                               :     481520. kBytes
   fftplans                                :     245548. kBytes
   grid                                    :     525680. kBytes
   one-center                              :       1990. kBytes
   HF                                      :        194. kBytes
   nonlr-proj                              :      52584. kBytes
   wavefun                                 :    3512924. kBytes
 
     INWAV:  cpu time      0.0001: real time      0.0000
 initial charge density was supplied:
 charge density of overlapping atoms calculated
 number of electron    1152.0000000 magnetization 
 keeping initial charge density in first step


--------------------------------------------------------------------------------------------------------


 Maximum index for augmentation-charges         12062 (set IRDMAX)


--------------------------------------------------------------------------------------------------------


 First call to EWALD:  gamma=   0.121
 Maximum number of real-space cells   3x   3x   2
 Maximum number of reciprocal cells   2x   2x   4

    FEWALD:  cpu time      0.1867: real time      0.1872


--------------------------------------- Ionic step        1  -------------------------------------------




--------------------------------------- Iteration      1(   1)  ---------------------------------------


    POTLOK:  cpu time      0.4992: real time      1.5142
    SETDIJ:  cpu time      0.0994: real time      0.0997
     EDDAV:  cpu time     13.8299: real time     14.5876
       DOS:  cpu time      0.0009: real time      0.0017
    --------------------------------------------
      LOOP:  cpu time     14.4298: real time     16.2035

 eigenvalue-minimisations  :  8304
 total energy-change (2. order) :-0.6704859E+05  (-0.5168234E+05)
 number of electron    1152.0000000 magnetization 
 augmentation part     1152.0000000 magnetization 

 Free energy of the ion-electron system (eV)
  ---------------------------------------------------
  alpha Z        PSCENC =      3590.49188669
  Ewald energy   TEWEN  =    -75122.05347602
  -Hartree energ DENC   =    -36129.95408452
  -exchange      EXHF   =         0.00000000
  -V(xc)+E(xc)   XCENC  =      2689.61918491
  PAW double counting   =     80361.77678867  -162278.69869501
  entropy T*S    EENTRO =        -0.00000729
  eigenvalues    EBANDS =      8739.62544882
  atomic energy  EATOM  =    111100.60618623
  Solvation  Ediel_sol  =         0.00000000
  ---------------------------------------------------
  free energy    TOTEN  =    -67048.58676752 eV

  energy without entropy =   -67048.58676022  energy(sigma->0) =   -67048.58676387
  exchange ACFDT corr.  =         0.00000000  see jH, gK, PRB 81, 115126


--------------------------------------------------------------------------------------------------------




--------------------------------------- Iteration      1(   2)  ---------------------------------------


     EDDAV:  cpu time      7.5208: real time      7.5416
       DOS:  cpu time      0.0008: real time      0.0008
    --------------------------------------------
      LOOP:  cpu time      7.5216: real time      7.5424

 eigenvalue-minimisations  :  8304
 total energy-change (2. order) :-0.1193640E+05  (-0.1167488E+05)
 number of electron    1152.0000000 magnetization 
 augmentation part     1152.0000000 magnetization 

 Free energy of the ion-electron system (eV)
  ---------------------------------------------------
  alpha Z        PSCENC =      3590.49188669
  Ewald energy   TEWEN  =    -75122.05347602
  -Hartree energ DENC   =    -36129.95408452
  -exchange      EXHF   =         0.00000000
  -V(xc)+E(xc)   XCENC  =      2689.61918491
  PAW double counting   =     80361.77678867  -162278.69869501
  entropy T*S    EENTRO =        -0.00173029
  eigenvalues    EBANDS =     -3196.77570962
  atomic energy  EATOM  =    111100.60618623
  Solvation  Ediel_sol  =         0.00000000
  ---------------------------------------------------
  free energy    TOTEN  =    -78984.98964896 eV

  energy without entropy =   -78984.98791867  energy(sigma->0) =   -78984.98878382
  exchange ACFDT corr.  =         0.00000000  see jH, gK, PRB 81, 115126


--------------------------------------------------------------------------------------------------------




--------------------------------------- Iteration      1(   3)  ---------------------------------------


     EDDAV:  cpu time      7.7924: real time      7.8190
       DOS:  cpu time      0.0005: real time      0.0005
    --------------------------------------------
      LOOP:  cpu time      7.7929: real time      7.8195

 eigenvalue-minimisations  :  8704
 total energy-change (2. order) :-0.2824779E+04  (-0.2643011E+04)
 number of electron    1152.0000000 magnetization 
 augmentation part     1152.0000000 magnetization 

 Free energy of the ion-electron system (eV)
  ---------------------------------------------------
  alpha Z        PSCENC =      3590.49188669
  Ewald energy   TEWEN  =    -75122.05347602
  -Hartree energ DENC   =    -36129.95408452
  -exchange      EXHF   =         0.00000000
  -V(xc)+E(xc)   XCENC  =      2689.61918491
  PAW double counting   =     80361.77678867  -162278.69869501
  entropy T*S    EENTRO =        -0.00000000
  eigenvalues    EBANDS =     -6021.55640504
  atomic energy  EATOM  =    111100.60618623
  Solvation  Ediel_sol  =         0.00000000
  ---------------------------------------------------
  free energy    TOTEN  =    -81809.76861409 eV

  energy without entropy =   -81809.76861409  energy(sigma->0) =   -81809.76861409
  exchange ACFDT corr.  =         0.00000000  see jH, gK, PRB 81, 115126


--------------------------------------------------------------------------------------------------------




--------------------------------------- Iteration      1(   4)  ---------------------------------------


     EDDAV:  cpu time      8.7371: real time      8.7611
       DOS:  cpu time      0.0005: real time      0.0005
    --------------------------------------------
      LOOP:  cpu time      8.7376: real time      8.7617

 eigenvalue-minimisations  :  9864
 total energy-change (2. order) :-0.3629686E+03  (-0.3554155E+03)
 number of electron    1152.0000000 magnetization 
 augmentation part     1152.0000000 magnetization 

 Free energy of the ion-electron system (eV)
  ---------------------------------------------------
  alpha Z        PSCENC =      3590.49188669
  Ewald energy   TEWEN  =    -75122.05347602
  -Hartree energ DENC   =    -36129.95408452
  -exchange      EXHF   =         0.00000000
  -V(xc)+E(xc)   XCENC  =      2689.61918491
  PAW double counting   =     80361.77678867  -162278.69869501
  entropy T*S    EENTRO =        -0.00000000
  eigenvalues    EBANDS =     -6384.52503486
  atomic energy  EATOM  =    111100.60618623
  Solvation  Ediel_sol  =         0.00000000
  ---------------------------------------------------
  free energy    TOTEN  =    -82172.73724391 eV

  energy without entropy =   -82172.73724391  energy(sigma->0) =   -82172.73724391
  exchange ACFDT corr.  =         0.00000000  see jH, gK, PRB 81, 115126


--------------------------------------------------------------------------------------------------------




--------------------------------------- Iteration      1(   5)  ---------------------------------------


    POTLOK:  cpu time      6.1406: real time      6.1545
    SETDIJ:  cpu time      0.2710: real time      0.2716
     EDDAV:  cpu time     74.9880: real time     75.1971
       DOS:  cpu time      0.0005: real time      0.0005
    CHARGE:  cpu time      0.4006: real time      0.4015
    MIXING:  cpu time      0.0216: real time      0.0216
    --------------------------------------------
      LOOP:  cpu time     81.8221: real time     82.0466

 eigenvalue-minimisations  : 10048
 total energy-change (2. order) : 0.8149900E+05  (-0.6530317E+02)
 number of electron    1151.9999780 magnetization 
 augmentation part      394.1270545 magnetization 

 Free energy of the ion-electron system (eV)
  ---------------------------------------------------
  alpha Z        PSCENC =      3590.49188669
  Ewald energy   TEWEN  =    -75122.05347602
  -Hartree energ DENC   =    -36129.95408452
  -exchange      EXHF   =      2663.73743251
  -V(xc)+E(xc)   XCENC  =      2001.70111127
  PAW double counting   =     80981.54612387   -84139.69796555
  entropy T*S    EENTRO =        -0.00000000
  eigenvalues    EBANDS =     -5620.11757559
  atomic energy  EATOM  =    111100.60618623
  Solvation  Ediel_sol  =         0.00000000
  ---------------------------------------------------
  free energy    TOTEN  =      -673.74036110 eV

  energy without entropy =     -673.74036110  energy(sigma->0) =     -673.74036110
  exchange ACFDT corr.  =         0.00000000  see jH, gK, PRB 81, 115126


--------------------------------------------------------------------------------------------------------




--------------------------------------- Iteration      1(   6)  ---------------------------------------


    POTLOK:  cpu time      6.1793: real time      6.1941
    SETDIJ:  cpu time      0.2281: real time      0.2287
     EDDAV:  cpu time     75.6734: real time     76.1761
       DOS:  cpu time      0.0005: real time      0.0005
    CHARGE:  cpu time      0.3858: real time      0.3866
    MIXING:  cpu time      0.0215: real time      0.0216
    --------------------------------------------
      LOOP:  cpu time     82.4887: real time     83.0077

 eigenvalue-minimisations  : 11736
 total energy-change (2. order) : 0.5007359E+01  (-0.5564626E+01)
 number of electron    1151.9999650 magnetization 
 augmentation part      390.5737707 magnetization 

 Free energy of the ion-electron system (eV)
  ---------------------------------------------------
  alpha Z        PSCENC =      3590.49188669
  Ewald energy   TEWEN  =    -75122.05347602
  -Hartree energ DENC   =    -36161.51473181
  -exchange      EXHF   =      2598.44564269
  -V(xc)+E(xc)   XCENC  =      2009.40528380
  PAW double counting   =     82273.94484626   -85462.09294779
  entropy T*S    EENTRO =        -0.00000000
  eigenvalues    EBANDS =     -5495.96569265
  atomic energy  EATOM  =    111100.60618623
  Solvation  Ediel_sol  =         0.00000000
  ---------------------------------------------------
  free energy    TOTEN  =      -668.73300259 eV

  energy without entropy =     -668.73300259  energy(sigma->0) =     -668.73300259
  exchange ACFDT corr.  =         0.00000000  see jH, gK, PRB 81, 115126


--------------------------------------------------------------------------------------------------------




--------------------------------------- Iteration      1(   7)  ---------------------------------------


    POTLOK:  cpu time      6.0771: real time      6.0909
    SETDIJ:  cpu time      0.2639: real time      0.2645
     EDDAV:  cpu time     75.8850: real time     76.3277
       DOS:  cpu time      0.0005: real time      0.0005
    CHARGE:  cpu time      0.3829: real time      0.3839
    MIXING:  cpu time      0.0216: real time      0.0217
    --------------------------------------------
      LOOP:  cpu time     82.6311: real time     83.0893

 eigenvalue-minimisations  : 11976
 total energy-change (2. order) : 0.2721601E+01  (-0.2203882E+01)
 number of electron    1151.9999570 magnetization 
 augmentation part      394.3692710 magnetization 

 Free energy of the ion-electron system (eV)
  ---------------------------------------------------
  alpha Z        PSCENC =      3590.49188669
  Ewald energy   TEWEN  =    -75122.05347602
  -Hartree energ DENC   =    -35984.61493310
  -exchange      EXHF   =      2574.57607655
  -V(xc)+E(xc)   XCENC  =      2007.61829888
  PAW double counting   =     82772.96142488   -85920.61382282
  entropy T*S    EENTRO =        -0.00000000
  eigenvalues    EBANDS =     -5684.98304325
  atomic energy  EATOM  =    111100.60618623
  Solvation  Ediel_sol  =         0.00000000
  ---------------------------------------------------
  free energy    TOTEN  =      -666.01140196 eV

  energy without entropy =     -666.01140196  energy(sigma->0) =     -666.01140196
  exchange ACFDT corr.  =         0.00000000  see jH, gK, PRB 81, 115126


--------------------------------------------------------------------------------------------------------




--------------------------------------- Iteration      1(   8)  ---------------------------------------


    POTLOK:  cpu time      6.1792: real time      6.2089
    SETDIJ:  cpu time      0.2276: real time      0.2281
     EDDAV:  cpu time     74.2649: real time     74.7395
       DOS:  cpu time      0.0005: real time      0.0005
    CHARGE:  cpu time      0.3835: real time      0.3845
    MIXING:  cpu time      0.0216: real time      0.0216
    --------------------------------------------
      LOOP:  cpu time     81.0773: real time     81.5832

 eigenvalue-minimisations  :  9848
 total energy-change (2. order) :-0.4533875E+00  (-0.7624967E+00)
 number of electron    1151.9999522 magnetization 
 augmentation part      394.5155917 magnetization 

 Free energy of the ion-electron system (eV)
  ---------------------------------------------------
  alpha Z        PSCENC =      3590.49188669
  Ewald energy   TEWEN  =    -75122.05347602
  -Hartree energ DENC   =    -35997.67878575
  -exchange      EXHF   =      2579.21393885
  -V(xc)+E(xc)   XCENC  =      2010.09672498
  PAW double counting   =     83308.27841345   -86497.73851312
  entropy T*S    EENTRO =        -0.00000000
  eigenvalues    EBANDS =     -5637.68116477
  atomic energy  EATOM  =    111100.60618623
  Solvation  Ediel_sol  =         0.00000000
  ---------------------------------------------------
  free energy    TOTEN  =      -666.46478945 eV

  energy without entropy =     -666.46478945  energy(sigma->0) =     -666.46478945
  exchange ACFDT corr.  =         0.00000000  see jH, gK, PRB 81, 115126


--------------------------------------------------------------------------------------------------------




--------------------------------------- Iteration      1(   9)  ---------------------------------------


    POTLOK:  cpu time      6.1780: real time      6.1942
    SETDIJ:  cpu time      0.2273: real time      0.2281
     EDDAV:  cpu time     74.5580: real time     74.9677
       DOS:  cpu time      0.0005: real time      0.0005
    CHARGE:  cpu time      0.3827: real time      0.3837
    MIXING:  cpu time      0.0216: real time      0.0216
    --------------------------------------------
      LOOP:  cpu time     81.3681: real time     81.7959

 eigenvalue-minimisations  : 10328
 total energy-change (2. order) : 0.4748325E-01  (-0.5106594E-01)
 number of electron    1151.9999494 magnetization 
 augmentation part      393.9795747 magnetization 

 Free energy of the ion-electron system (eV)
  ---------------------------------------------------
  alpha Z        PSCENC =      3590.49188669
  Ewald energy   TEWEN  =    -75122.05347602
  -Hartree energ DENC   =    -35997.24901276
  -exchange      EXHF   =      2575.16277090
  -V(xc)+E(xc)   XCENC  =      2011.00961227
  PAW double counting   =     83656.42879557   -86870.19668263
  entropy T*S    EENTRO =        -0.00000000
  eigenvalues    EBANDS =     -5610.61738645
  atomic energy  EATOM  =    111100.60618623
  Solvation  Ediel_sol  =         0.00000000
  ---------------------------------------------------
  free energy    TOTEN  =      -666.41730620 eV

  energy without entropy =     -666.41730620  energy(sigma->0) =     -666.41730620
  exchange ACFDT corr.  =         0.00000000  see jH, gK, PRB 81, 115126


--------------------------------------------------------------------------------------------------------




--------------------------------------- Iteration      1(  10)  ---------------------------------------


    POTLOK:  cpu time      6.0209: real time      6.1076
    SETDIJ:  cpu time      0.2972: real time      0.2978
     EDDAV:  cpu time     75.2546: real time     75.6409
       DOS:  cpu time      0.0005: real time      0.0005
    CHARGE:  cpu time      0.3861: real time      0.3870
    MIXING:  cpu time      0.0216: real time      0.0216
    --------------------------------------------
      LOOP:  cpu time     81.9808: real time     82.4555

 eigenvalue-minimisations  : 11160
 total energy-change (2. order) : 0.5596307E-01  (-0.1769171E-01)
 number of electron    1151.9999477 magnetization 
 augmentation part      394.0282244 magnetization 

 Free energy of the ion-electron system (eV)
  ---------------------------------------------------
  alpha Z        PSCENC =      3590.49188669
  Ewald energy   TEWEN  =    -75122.05347602
  -Hartree energ DENC   =    -35977.65224298
  -exchange      EXHF   =      2573.02696920
  -V(xc)+E(xc)   XCENC  =      2010.90917444
  PAW double counting   =     83835.34133378   -87057.04128646
  entropy T*S    EENTRO =        -0.00000000
  eigenvalues    EBANDS =     -5619.98988801
  atomic energy  EATOM  =    111100.60618623
  Solvation  Ediel_sol  =         0.00000000
  ---------------------------------------------------
  free energy    TOTEN  =      -666.36134313 eV

  energy without entropy =     -666.36134313  energy(sigma->0) =     -666.36134313
  exchange ACFDT corr.  =         0.00000000  see jH, gK, PRB 81, 115126


--------------------------------------------------------------------------------------------------------




--------------------------------------- Iteration      1(  11)  ---------------------------------------


    POTLOK:  cpu time      6.0922: real time      6.1058
    SETDIJ:  cpu time      0.2425: real time      0.2430
     EDDAV:  cpu time     74.9822: real time     75.4241
       DOS:  cpu time      0.0006: real time      0.0006
    CHARGE:  cpu time      0.3863: real time      0.3873
    MIXING:  cpu time      0.0215: real time      0.0216
    --------------------------------------------
      LOOP:  cpu time     81.7253: real time     82.1825

 eigenvalue-minimisations  : 10800
 total energy-change (2. order) : 0.9019611E-02  (-0.4835377E-02)
 number of electron    1151.9999467 magnetization 
 augmentation part      393.9507970 magnetization 

 Free energy of the ion-electron system (eV)
  ---------------------------------------------------
  alpha Z        PSCENC =      3590.49188669
  Ewald energy   TEWEN  =    -75122.05347602
  -Hartree energ DENC   =    -35972.31341846
  -exchange      EXHF   =      2573.83535229
  -V(xc)+E(xc)   XCENC  =      2011.08640323
  PAW double counting   =     83947.43941143   -87177.55817803
  entropy T*S    EENTRO =        -0.00000000
  eigenvalues    EBANDS =     -5617.88649089
  atomic energy  EATOM  =    111100.60618623
  Solvation  Ediel_sol  =         0.00000000
  ---------------------------------------------------
  free energy    TOTEN  =      -666.35232352 eV

  energy without entropy =     -666.35232352  energy(sigma->0) =     -666.35232352
  exchange ACFDT corr.  =         0.00000000  see jH, gK, PRB 81, 115126


--------------------------------------------------------------------------------------------------------




--------------------------------------- Iteration      1(  12)  ---------------------------------------


    POTLOK:  cpu time      6.2297: real time      6.2431
    SETDIJ:  cpu time      0.2275: real time      0.2280
     EDDAV:  cpu time     74.5208: real time     74.9789
       DOS:  cpu time      0.0005: real time      0.0005
    CHARGE:  cpu time      0.3853: real time      0.3864
    MIXING:  cpu time      0.0215: real time      0.0216
    --------------------------------------------
      LOOP:  cpu time     81.3854: real time     81.8586

 eigenvalue-minimisations  : 10240
 total energy-change (2. order) :-0.8408271E-03  (-0.9967030E-03)
 number of electron    1151.9999460 magnetization 
 augmentation part      393.9313332 magnetization 

 Free energy of the ion-electron system (eV)
  ---------------------------------------------------
  alpha Z        PSCENC =      3590.49188669
  Ewald energy   TEWEN  =    -75122.05347602
  -Hartree energ DENC   =    -35968.82035417
  -exchange      EXHF   =      2574.03176405
  -V(xc)+E(xc)   XCENC  =      2011.19973637
  PAW double counting   =     84012.57241719   -87246.85477442
  entropy T*S    EENTRO =        -0.00000000
  eigenvalues    EBANDS =     -5617.52655027
  atomic energy  EATOM  =    111100.60618623
  Solvation  Ediel_sol  =         0.00000000
  ---------------------------------------------------
  free energy    TOTEN  =      -666.35316435 eV

  energy without entropy =     -666.35316435  energy(sigma->0) =     -666.35316435
  exchange ACFDT corr.  =         0.00000000  see jH, gK, PRB 81, 115126


--------------------------------------------------------------------------------------------------------




--------------------------------------- Iteration      1(  13)  ---------------------------------------


    POTLOK:  cpu time      6.1485: real time      6.1644
    SETDIJ:  cpu time      0.2277: real time      0.2283
     EDDAV:  cpu time     74.6521: real time     75.0500
       DOS:  cpu time      0.0005: real time      0.0005
    CHARGE:  cpu time      0.3842: real time      0.3853
    MIXING:  cpu time      0.0216: real time      0.0217
    --------------------------------------------
      LOOP:  cpu time     81.4346: real time     81.8502

 eigenvalue-minimisations  : 10432
 total energy-change (2. order) :-0.1289632E-02  (-0.2221348E-03)
 number of electron    1151.9999457 magnetization 
 augmentation part      393.9331792 magnetization 

 Free energy of the ion-electron system (eV)
  ---------------------------------------------------
  alpha Z        PSCENC =      3590.49188669
  Ewald energy   TEWEN  =    -75122.05347602
  -Hartree energ DENC   =    -35967.16672922
  -exchange      EXHF   =      2574.14407338
  -V(xc)+E(xc)   XCENC  =      2011.28833139
  PAW double counting   =     84051.56880688   -87288.26348497
  entropy T*S    EENTRO =        -0.00000000
  eigenvalues    EBANDS =     -5616.97004834
  atomic energy  EATOM  =    111100.60618623
  Solvation  Ediel_sol  =         0.00000000
  ---------------------------------------------------
  free energy    TOTEN  =      -666.35445398 eV

  energy without entropy =     -666.35445398  energy(sigma->0) =     -666.35445398
  exchange ACFDT corr.  =         0.00000000  see jH, gK, PRB 81, 115126


--------------------------------------------------------------------------------------------------------




--------------------------------------- Iteration      1(  14)  ---------------------------------------


    POTLOK:  cpu time      6.1131: real time      6.1289
    SETDIJ:  cpu time      0.2603: real time      0.2611
     EDDAV:  cpu time     74.3981: real time     74.9227
       DOS:  cpu time      0.0005: real time      0.0005
    CHARGE:  cpu time      0.3846: real time      0.3856
    MIXING:  cpu time      0.0216: real time      0.0217
    --------------------------------------------
      LOOP:  cpu time     81.1783: real time     81.7204

 eigenvalue-minimisations  : 10080
 total energy-change (2. order) :-0.1029170E-02  (-0.1167297E-03)
 number of electron    1151.9999455 magnetization 
 augmentation part      393.9279386 magnetization 

 Free energy of the ion-electron system (eV)
  ---------------------------------------------------
  alpha Z        PSCENC =      3590.49188669
  Ewald energy   TEWEN  =    -75122.05347602
  -Hartree energ DENC   =    -35966.78289462
  -exchange      EXHF   =      2574.19376704
  -V(xc)+E(xc)   XCENC  =      2011.36079016
  PAW double counting   =     84075.88166963   -87314.17815082
  entropy T*S    EENTRO =        -0.00000000
  eigenvalues    EBANDS =     -5615.87526143
  atomic energy  EATOM  =    111100.60618623
  Solvation  Ediel_sol  =         0.00000000
  ---------------------------------------------------
  free energy    TOTEN  =      -666.35548315 eV

  energy without entropy =     -666.35548315  energy(sigma->0) =     -666.35548315
  exchange ACFDT corr.  =         0.00000000  see jH, gK, PRB 81, 115126


--------------------------------------------------------------------------------------------------------




--------------------------------------- Iteration      1(  15)  ---------------------------------------


    POTLOK:  cpu time      6.1177: real time      6.1329
    SETDIJ:  cpu time      0.2273: real time      0.2279
     EDDAV:  cpu time     73.7831: real time     74.2656
       DOS:  cpu time      0.0005: real time      0.0005
    CHARGE:  cpu time      0.3872: real time      0.3882
    MIXING:  cpu time      0.0215: real time      0.0217
    --------------------------------------------
      LOOP:  cpu time     80.5373: real time     81.0367

 eigenvalue-minimisations  :  9272
 total energy-change (2. order) :-0.7198512E-03  (-0.6091083E-04)
 number of electron    1151.9999453 magnetization 
 augmentation part      393.9272067 magnetization 

 Free energy of the ion-electron system (eV)
  ---------------------------------------------------
  alpha Z        PSCENC =      3590.49188669
  Ewald energy   TEWEN  =    -75122.05347602
  -Hartree energ DENC   =    -35966.60148982
  -exchange      EXHF   =      2574.17726997
  -V(xc)+E(xc)   XCENC  =      2011.40339593
  PAW double counting   =     84090.64506750   -87329.84866526
  entropy T*S    EENTRO =        -0.00000000
  eigenvalues    EBANDS =     -5615.17637822
  atomic energy  EATOM  =    111100.60618623
  Solvation  Ediel_sol  =         0.00000000
  ---------------------------------------------------
  free energy    TOTEN  =      -666.35620300 eV

  energy without entropy =     -666.35620300  energy(sigma->0) =     -666.35620300
  exchange ACFDT corr.  =         0.00000000  see jH, gK, PRB 81, 115126


--------------------------------------------------------------------------------------------------------




--------------------------------------- Iteration      1(  16)  ---------------------------------------


    POTLOK:  cpu time      6.1401: real time      6.1565
    SETDIJ:  cpu time      0.2278: real time      0.2284
     EDDAV:  cpu time     72.9982: real time     73.3913
       DOS:  cpu time      0.0005: real time      0.0005
    CHARGE:  cpu time      0.3864: real time      0.3875
    MIXING:  cpu time      0.0216: real time      0.0216
    --------------------------------------------
      LOOP:  cpu time     79.7747: real time     80.1859

 eigenvalue-minimisations  :  8200
 total energy-change (2. order) :-0.4338972E-03  (-0.3223121E-04)
 number of electron    1151.9999452 magnetization 
 augmentation part      393.9253369 magnetization 

 Free energy of the ion-electron system (eV)
  ---------------------------------------------------
  alpha Z        PSCENC =      3590.49188669
  Ewald energy   TEWEN  =    -75122.05347602
  -Hartree energ DENC   =    -35966.62058743
  -exchange      EXHF   =      2574.17168173
  -V(xc)+E(xc)   XCENC  =      2011.43157359
  PAW double counting   =     84099.69557032   -87339.47826593
  entropy T*S    EENTRO =        -0.00000000
  eigenvalues    EBANDS =     -5614.60120608
  atomic energy  EATOM  =    111100.60618623
  Solvation  Ediel_sol  =         0.00000000
  ---------------------------------------------------
  free energy    TOTEN  =      -666.35663690 eV

  energy without entropy =     -666.35663690  energy(sigma->0) =     -666.35663690
  exchange ACFDT corr.  =         0.00000000  see jH, gK, PRB 81, 115126


--------------------------------------------------------------------------------------------------------




--------------------------------------- Iteration      1(  17)  ---------------------------------------


    POTLOK:  cpu time      6.0446: real time      6.1306
    SETDIJ:  cpu time      0.2284: real time      0.2290
     EDDAV:  cpu time     73.0735: real time     73.4806
       DOS:  cpu time      0.0005: real time      0.0005
    CHARGE:  cpu time      0.3832: real time      0.3842
    MIXING:  cpu time      0.0216: real time      0.0217
    --------------------------------------------
      LOOP:  cpu time     79.7518: real time     80.2467

 eigenvalue-minimisations  :  8280
 total energy-change (2. order) :-0.2407924E-03  (-0.1593829E-04)
 number of electron    1151.9999452 magnetization 
 augmentation part      393.9247405 magnetization 

 Free energy of the ion-electron system (eV)
  ---------------------------------------------------
  alpha Z        PSCENC =      3590.49188669
  Ewald energy   TEWEN  =    -75122.05347602
  -Hartree energ DENC   =    -35966.65682869
  -exchange      EXHF   =      2574.16272009
  -V(xc)+E(xc)   XCENC  =      2011.44818693
  PAW double counting   =     84105.19299543   -87345.31960879
  entropy T*S    EENTRO =        -0.00000000
  eigenvalues    EBANDS =     -5614.22893956
  atomic energy  EATOM  =    111100.60618623
  Solvation  Ediel_sol  =         0.00000000
  ---------------------------------------------------
  free energy    TOTEN  =      -666.35687769 eV

  energy without entropy =     -666.35687769  energy(sigma->0) =     -666.35687769
  exchange ACFDT corr.  =         0.00000000  see jH, gK, PRB 81, 115126


--------------------------------------------------------------------------------------------------------




--------------------------------------- Iteration      1(  18)  ---------------------------------------


    POTLOK:  cpu time      6.0878: real time      6.1050
    SETDIJ:  cpu time      0.3327: real time      0.3336
     EDDAV:  cpu time     72.6612: real time     73.0878
       DOS:  cpu time      0.0005: real time      0.0005
    CHARGE:  cpu time      0.3846: real time      0.3855
    MIXING:  cpu time      0.0216: real time      0.0216
    --------------------------------------------
      LOOP:  cpu time     79.4885: real time     79.9342

 eigenvalue-minimisations  :  7744
 total energy-change (2. order) :-0.1278412E-03  (-0.7941259E-05)
 number of electron    1151.9999452 magnetization 
 augmentation part      393.9241160 magnetization 

 Free energy of the ion-electron system (eV)
  ---------------------------------------------------
  alpha Z        PSCENC =      3590.49188669
  Ewald energy   TEWEN  =    -75122.05347602
  -Hartree energ DENC   =    -35966.72116245
  -exchange      EXHF   =      2574.15981442
  -V(xc)+E(xc)   XCENC  =      2011.45888555
  PAW double counting   =     84108.55216164   -87348.88632954
  entropy T*S    EENTRO =        -0.00000000
  eigenvalues    EBANDS =     -5613.96497205
  atomic energy  EATOM  =    111100.60618623
  Solvation  Ediel_sol  =         0.00000000
  ---------------------------------------------------
  free energy    TOTEN  =      -666.35700553 eV

  energy without entropy =     -666.35700553  energy(sigma->0) =     -666.35700553
  exchange ACFDT corr.  =         0.00000000  see jH, gK, PRB 81, 115126


--------------------------------------------------------------------------------------------------------




--------------------------------------- Iteration      1(  19)  ---------------------------------------


    POTLOK:  cpu time      6.2206: real time      6.2348
    SETDIJ:  cpu time      0.2284: real time      0.2290
     EDDAV:  cpu time     72.7794: real time     72.9485
       DOS:  cpu time      0.0005: real time      0.0005
    CHARGE:  cpu time      0.3866: real time      0.3876
    MIXING:  cpu time      0.0216: real time      0.0216
    --------------------------------------------
      LOOP:  cpu time     79.6370: real time     79.8218

 eigenvalue-minimisations  :  7656
 total energy-change (2. order) :-0.6750543E-04  (-0.4108998E-05)
 number of electron    1151.9999452 magnetization 
 augmentation part      393.9238454 magnetization 

 Free energy of the ion-electron system (eV)
  ---------------------------------------------------
  alpha Z        PSCENC =      3590.49188669
  Ewald energy   TEWEN  =    -75122.05347602
  -Hartree energ DENC   =    -35966.78396215
  -exchange      EXHF   =      2574.15829658
  -V(xc)+E(xc)   XCENC  =      2011.46578997
  PAW double counting   =     84110.58269352   -87351.04065243
  entropy T*S    EENTRO =        -0.00000000
  eigenvalues    EBANDS =     -5613.78383545
  atomic energy  EATOM  =    111100.60618623
  Solvation  Ediel_sol  =         0.00000000
  ---------------------------------------------------
  free energy    TOTEN  =      -666.35707304 eV

  energy without entropy =     -666.35707304  energy(sigma->0) =     -666.35707304
  exchange ACFDT corr.  =         0.00000000  see jH, gK, PRB 81, 115126


--------------------------------------------------------------------------------------------------------




--------------------------------------- Iteration      1(  20)  ---------------------------------------


    POTLOK:  cpu time      6.1089: real time      6.1225
    SETDIJ:  cpu time      0.2281: real time      0.2287
     EDDAV:  cpu time     71.3342: real time     71.5387
       DOS:  cpu time      0.0005: real time      0.0005
    CHARGE:  cpu time      0.3858: real time      0.3868
    MIXING:  cpu time      0.0216: real time      0.0216
    --------------------------------------------
      LOOP:  cpu time     78.0791: real time     78.2988

 eigenvalue-minimisations  :  5776
 total energy-change (2. order) :-0.3477409E-04  (-0.1982873E-05)
 number of electron    1151.9999451 magnetization 
 augmentation part      393.9234564 magnetization 

 Free energy of the ion-electron system (eV)
  ---------------------------------------------------
  alpha Z        PSCENC =      3590.49188669
  Ewald energy   TEWEN  =    -75122.05347602
  -Hartree energ DENC   =    -35966.84462731
  -exchange      EXHF   =      2574.15804329
  -V(xc)+E(xc)   XCENC  =      2011.47048254
  PAW double counting   =     84111.80985901   -87352.34134592
  entropy T*S    EENTRO =        -0.00000000
  eigenvalues    EBANDS =     -5613.65411632
  atomic energy  EATOM  =    111100.60618623
  Solvation  Ediel_sol  =         0.00000000
  ---------------------------------------------------
  free energy    TOTEN  =      -666.35710781 eV

  energy without entropy =     -666.35710781  energy(sigma->0) =     -666.35710781
  exchange ACFDT corr.  =         0.00000000  see jH, gK, PRB 81, 115126


--------------------------------------------------------------------------------------------------------




--------------------------------------- Iteration      1(  21)  ---------------------------------------


    POTLOK:  cpu time      6.1174: real time      6.1311
    SETDIJ:  cpu time      0.2730: real time      0.2736
     EDDAV:  cpu time     70.8598: real time     71.3138
       DOS:  cpu time      0.0005: real time      0.0005
    CHARGE:  cpu time      0.3997: real time      0.4007
    MIXING:  cpu time      0.0216: real time      0.0216
    --------------------------------------------
      LOOP:  cpu time     77.6719: real time     78.1413

 eigenvalue-minimisations  :  5224
 total energy-change (2. order) :-0.1798535E-04  (-0.1263769E-05)
 number of electron    1151.9999451 magnetization 
 augmentation part      393.9233394 magnetization 

 Free energy of the ion-electron system (eV)
  ---------------------------------------------------
  alpha Z        PSCENC =      3590.49188669
  Ewald energy   TEWEN  =    -75122.05347602
  -Hartree energ DENC   =    -35966.89564899
  -exchange      EXHF   =      2574.15811831
  -V(xc)+E(xc)   XCENC  =      2011.47369771
  PAW double counting   =     84112.53273503   -87353.10747952
  entropy T*S    EENTRO =        -0.00000000
  eigenvalues    EBANDS =     -5613.56314523
  atomic energy  EATOM  =    111100.60618623
  Solvation  Ediel_sol  =         0.00000000
  ---------------------------------------------------
  free energy    TOTEN  =      -666.35712580 eV

  energy without entropy =     -666.35712580  energy(sigma->0) =     -666.35712580
  exchange ACFDT corr.  =         0.00000000  see jH, gK, PRB 81, 115126


--------------------------------------------------------------------------------------------------------




--------------------------------------- Iteration      1(  22)  ---------------------------------------


    POTLOK:  cpu time      6.1625: real time      6.1762
    SETDIJ:  cpu time      0.2285: real time      0.2290
     EDDAV:  cpu time     70.6603: real time     71.0806
       DOS:  cpu time      0.0005: real time      0.0005
    --------------------------------------------
      LOOP:  cpu time     77.0521: real time     77.4865

 eigenvalue-minimisations  :  5072
 total energy-change (2. order) :-0.9463794E-05  (-0.8910301E-06)
 number of electron    1151.9999451 magnetization 
 augmentation part      393.9233394 magnetization 

 Free energy of the ion-electron system (eV)
  ---------------------------------------------------
  alpha Z        PSCENC =      3590.49188669
  Ewald energy   TEWEN  =    -75122.05347602
  -Hartree energ DENC   =    -35966.93962119
  -exchange      EXHF   =      2574.15832835
  -V(xc)+E(xc)   XCENC  =      2011.47598413
  PAW double counting   =     84112.96269228   -87353.56348015
  entropy T*S    EENTRO =        -0.00000000
  eigenvalues    EBANDS =     -5613.49563558
  atomic energy  EATOM  =    111100.60618623
  Solvation  Ediel_sol  =         0.00000000
  ---------------------------------------------------
  free energy    TOTEN  =      -666.35713526 eV

  energy without entropy =     -666.35713526  energy(sigma->0) =     -666.35713526
  exchange ACFDT corr.  =         0.00000000  see jH, gK, PRB 81, 115126


--------------------------------------------------------------------------------------------------------




 average (electrostatic) potential at core
  the test charge radii are     1.0053  1.0774  1.0808
  (the norm of the test charge is              1.0000)
       1 -31.2381       2 -31.2382       3 -31.2381       4 -31.2382       5 -31.2381
       6 -31.2382       7 -31.2381       8 -31.2382       9 -31.2383      10 -31.2379
      11 -31.2379      12 -31.2380      13 -31.2379      14 -31.2380      15 -31.2380
      16 -31.2383      17 -31.2382      18 -31.2381      19 -31.2382      20 -31.2381
      21 -31.2382      22 -31.2381      23 -31.2382      24 -31.2381      25 -31.2380
      26 -31.2379      27 -31.2379      28 -31.2380      29 -31.2379      30 -31.2380
      31 -31.2380      32 -31.2379      33 -91.8036      34 -91.8035      35 -91.8036
      36 -91.8035      37 -91.8035      38 -91.8036      39 -91.8035      40 -91.8036
      41 -91.8036      42 -91.8036      43 -91.8035      44 -91.8035      45 -91.8036
      46 -91.8035      47 -91.8036      48 -91.8036      49 -91.8035      50 -91.8036
      51 -91.8036      52 -91.8035      53 -91.8035      54 -91.8036      55 -91.8036
      56 -91.8035      57 -91.8035      58 -91.8035      59 -91.8035      60 -91.8035
      61 -91.8035      62 -91.8035      63 -91.8035      64 -91.8035      65 -51.0728
      66 -51.0728      67 -51.0728      68 -51.0728      69 -51.0728      70 -51.0728
      71 -51.0728      72 -51.0728      73 -51.0728      74 -51.0728      75 -51.0728
      76 -51.0728      77 -51.0728      78 -51.0728      79 -51.0728      80 -51.0728
      81 -51.0728      82 -51.0728      83 -51.0728      84 -51.0728      85 -51.0728
      86 -51.0728      87 -51.0728      88 -51.0728      89 -51.0728      90 -51.0728
      91 -51.0728      92 -51.0728      93 -51.0728      94 -51.0728      95 -51.0728
      96 -51.0728      97 -51.0728      98 -51.0728      99 -51.0728     100 -51.0728
     101 -51.0728     102 -51.0728     103 -51.0728     104 -51.0728     105 -51.0728
     106 -51.0728     107 -51.0728     108 -51.0728     109 -51.0728     110 -51.0728
     111 -51.0728     112 -51.0728     113 -51.0728     114 -51.0728     115 -51.0728
     116 -51.0728     117 -51.0728     118 -51.0728     119 -51.0728     120 -51.0728
     121 -51.0728     122 -51.0728     123 -51.0728     124 -51.0728     125 -51.0728
     126 -51.0728     127 -51.0728     128 -51.0728
 
 
 
 E-fermi :   3.2225     XC(G=0):  -7.7472     alpha+bet : -9.0850

 val. band max:        3.1501119527   @ k =   0.0000   0.0000   0.0000
 cond. band min:       4.2014891976   @ k =   0.0000   0.0000   0.0000
 fundamental gap:      1.0513772450
 Fermi energy:         3.2224568921

 k-point     1 :       0.0000    0.0000    0.0000
  band No.  band energies     occupation 
      1     -13.6616      2.00000
      2     -13.6616      2.00000
      3     -13.6616      2.00000
      4     -13.6616      2.00000
      5     -13.6565      2.00000
      6     -13.6565      2.00000
      7     -13.6565      2.00000
      8     -13.6565      2.00000
      9     -13.6558      2.00000
     10     -13.6558      2.00000
     11     -13.6558      2.00000
     12     -13.6558      2.00000
     13     -13.6558      2.00000
     14     -13.6558      2.00000
     15     -13.6558      2.00000
     16     -13.6558      2.00000
     17     -13.6446      2.00000
     18     -13.6446      2.00000
     19     -13.6404      2.00000
     20     -13.6404      2.00000
     21     -13.6404      2.00000
     22     -13.6404      2.00000
     23     -13.6392      2.00000
     24     -13.6392      2.00000
     25     -13.6392      2.00000
     26     -13.6392      2.00000
     27     -13.6363      2.00000
     28     -13.6363      2.00000
     29     -13.6363      2.00000
     30     -13.6363      2.00000
     31     -13.6348      2.00000
     32     -13.6335      2.00000
     33     -13.6335      2.00000
     34     -13.6086      2.00000
     35     -13.6086      2.00000
     36     -13.5898      2.00000
     37     -13.5898      2.00000
     38     -13.5898      2.00000
     39     -13.5898      2.00000
     40     -13.5851      2.00000
     41     -13.5851      2.00000
     42     -13.5851      2.00000
     43     -13.5851      2.00000
     44     -13.5350      2.00000
     45     -13.5350      2.00000
     46     -13.5214      2.00000
     47     -13.5214      2.00000
     48     -13.5214      2.00000
     49     -13.5214      2.00000
     50     -13.5212      2.00000
     51     -13.5212      2.00000
     52     -13.5212      2.00000
     53     -13.5212      2.00000
     54     -13.4583      2.00000
     55     -13.4583      2.00000
     56     -13.4583      2.00000
     57     -13.4583      2.00000
     58     -13.4488      2.00000
     59     -13.4488      2.00000
     60     -13.4488      2.00000
     61     -13.4488      2.00000
     62     -13.4371      2.00000
     63     -13.4371      2.00000
     64     -13.3839      2.00000
     65     -13.3806      2.00000
     66     -13.3806      2.00000
     67     -13.3806      2.00000
     68     -13.3806      2.00000
     69     -13.3769      2.00000
     70     -13.3769      2.00000
     71     -13.3769      2.00000
     72     -13.3769      2.00000
     73     -13.3746      2.00000
     74     -13.3746      2.00000
     75     -13.3746      2.00000
     76     -13.3746      2.00000
     77     -13.3744      2.00000
     78     -13.3744      2.00000
     79     -13.3744      2.00000
     80     -13.3744      2.00000
     81     -13.3597      2.00000
     82     -13.3597      2.00000
     83     -13.3503      2.00000
     84     -13.3503      2.00000
     85     -13.3503      2.00000
     86     -13.3503      2.00000
     87     -13.3499      2.00000
     88     -13.3499      2.00000
     89     -13.3499      2.00000
     90     -13.3499      2.00000
     91     -13.3480      2.00000
     92     -13.3480      2.00000
     93     -13.3480      2.00000
     94     -13.3480      2.00000
     95     -13.3405      2.00000
     96     -13.3405      2.00000
     97     -13.2801      2.00000
     98     -13.2801      2.00000
     99     -13.2784      2.00000
    100     -13.2784      2.00000
    101     -13.2718      2.00000
    102     -13.2691      2.00000
    103     -13.2691      2.00000
    104     -13.2691      2.00000
    105     -13.2691      2.00000
    106     -13.2690      2.00000
    107     -13.2690      2.00000
    108     -13.2690      2.00000
    109     -13.2690      2.00000
    110     -13.2673      2.00000
    111     -13.2673      2.00000
    112     -13.2673      2.00000
    113     -13.2673      2.00000
    114     -13.2671      2.00000
    115     -13.2667      2.00000
    116     -13.2667      2.00000
    117     -13.2667      2.00000
    118     -13.2667      2.00000
    119     -13.2660      2.00000
    120     -13.2660      2.00000
    121     -13.2567      2.00000
    122     -13.2567      2.00000
    123     -13.2567      2.00000
    124     -13.2567      2.00000
    125     -13.2565      2.00000
    126     -13.2565      2.00000
    127     -13.2565      2.00000
    128     -13.2565      2.00000
    129     -13.2545      2.00000
    130     -13.2527      2.00000
    131     -13.2527      2.00000
    132     -13.2507      2.00000
    133     -13.2507      2.00000
    134     -13.2507      2.00000
    135     -13.2507      2.00000
    136     -13.2505      2.00000
    137     -13.2505      2.00000
    138     -13.2505      2.00000
    139     -13.2505      2.00000
    140     -13.2476      2.00000
    141     -13.2476      2.00000
    142     -13.2476      2.00000
    143     -13.2476      2.00000
    144     -13.2475      2.00000
    145     -13.2475      2.00000
    146     -13.2475      2.00000
    147     -13.2475      2.00000
    148     -13.2413      2.00000
    149     -13.2413      2.00000
    150     -13.2413      2.00000
    151     -13.2413      2.00000
    152     -13.2409      2.00000
    153     -13.2409      2.00000
    154     -13.2409      2.00000
    155     -13.2409      2.00000
    156     -13.2389      2.00000
    157     -13.2389      2.00000
    158     -13.2384      2.00000
    159     -13.2348      2.00000
    160     -13.2348      2.00000
    161     -11.9893      2.00000
    162     -11.7752      2.00000
    163     -11.7752      2.00000
    164     -11.3511      2.00000
    165     -11.3511      2.00000
    166     -11.3511      2.00000
    167     -11.3511      2.00000
    168     -11.3229      2.00000
    169     -11.3229      2.00000
    170     -11.3229      2.00000
    171     -11.3229      2.00000
    172     -11.2477      2.00000
    173     -11.2477      2.00000
    174     -10.9711      2.00000
    175     -10.9711      2.00000
    176     -10.9711      2.00000
    177     -10.9711      2.00000
    178     -10.9701      2.00000
    179     -10.9701      2.00000
    180     -10.9701      2.00000
    181     -10.9701      2.00000
    182     -10.9481      2.00000
    183     -10.9481      2.00000
    184     -10.9481      2.00000
    185     -10.9481      2.00000
    186     -10.8070      2.00000
    187     -10.8070      2.00000
    188     -10.8070      2.00000
    189     -10.8070      2.00000
    190     -10.7103      2.00000
    191     -10.7103      2.00000
    192     -10.7103      2.00000
    193     -10.7103      2.00000
    194     -10.6598      2.00000
    195     -10.6598      2.00000
    196     -10.6045      2.00000
    197     -10.6045      2.00000
    198     -10.6045      2.00000
    199     -10.6045      2.00000
    200     -10.6033      2.00000
    201     -10.6033      2.00000
    202     -10.6033      2.00000
    203     -10.6033      2.00000
    204     -10.5212      2.00000
    205     -10.5212      2.00000
    206     -10.5212      2.00000
    207     -10.5212      2.00000
    208     -10.4383      2.00000
    209     -10.4383      2.00000
    210     -10.4383      2.00000
    211     -10.4383      2.00000
    212     -10.3931      2.00000
    213     -10.3931      2.00000
    214     -10.3838      2.00000
    215     -10.3788      2.00000
    216     -10.3788      2.00000
    217     -10.3788      2.00000
    218     -10.3788      2.00000
    219     -10.3644      2.00000
    220     -10.3644      2.00000
    221     -10.3630      2.00000
    222     -10.3630      2.00000
    223     -10.3630      2.00000
    224     -10.3630      2.00000
    225      -3.9202      2.00000
    226      -3.7238      2.00000
    227      -3.7238      2.00000
    228      -3.5950      2.00000
    229      -3.5950      2.00000
    230      -3.5950      2.00000
    231      -3.5950      2.00000
    232      -3.5508      2.00000
    233      -3.5508      2.00000
    234      -3.5508      2.00000
    235      -3.5508      2.00000
    236      -3.4722      2.00000
    237      -3.4722      2.00000
    238      -3.4722      2.00000
    239      -3.4722      2.00000
    240      -3.4436      2.00000
    241      -3.4436      2.00000
    242      -3.4436      2.00000
    243      -3.4436      2.00000
    244      -3.3962      2.00000
    245      -3.3962      2.00000
    246      -3.0298      2.00000
    247      -3.0298      2.00000
    248      -2.9099      2.00000
    249      -2.9099      2.00000
    250      -2.9099      2.00000
    251      -2.9099      2.00000
    252      -2.8627      2.00000
    253      -2.8627      2.00000
    254      -2.8627      2.00000
    255      -2.8627      2.00000
    256      -2.7621      2.00000
    257      -2.2335      2.00000
    258      -2.2335      2.00000
    259      -2.2335      2.00000
    260      -2.2335      2.00000
    261      -2.0587      2.00000
    262      -2.0587      2.00000
    263      -2.0587      2.00000
    264      -2.0587      2.00000
    265      -1.7285      2.00000
    266      -1.7285      2.00000
    267      -1.7285      2.00000
    268      -1.7285      2.00000
    269      -1.6911      2.00000
    270      -1.6911      2.00000
    271      -1.6911      2.00000
    272      -1.6911      2.00000
    273      -1.6726      2.00000
    274      -1.6726      2.00000
    275      -1.6436      2.00000
    276      -1.3945      2.00000
    277      -1.3945      2.00000
    278      -1.3945      2.00000
    279      -1.3945      2.00000
    280      -1.3592      2.00000
    281      -1.3592      2.00000
    282      -1.3592      2.00000
    283      -1.3592      2.00000
    284      -1.2836      2.00000
    285      -1.2498      2.00000
    286      -1.2498      2.00000
    287      -1.2498      2.00000
    288      -1.2498      2.00000
    289      -1.2296      2.00000
    290      -1.2296      2.00000
    291      -1.2207      2.00000
    292      -1.2207      2.00000
    293      -1.2207      2.00000
    294      -1.2207      2.00000
    295      -1.2125      2.00000
    296      -0.9397      2.00000
    297      -0.9397      2.00000
    298      -0.9397      2.00000
    299      -0.9397      2.00000
    300      -0.9277      2.00000
    301      -0.9277      2.00000
    302      -0.8791      2.00000
    303      -0.8791      2.00000
    304      -0.8791      2.00000
    305      -0.8791      2.00000
    306      -0.8536      2.00000
    307      -0.8536      2.00000
    308      -0.8315      2.00000
    309      -0.8315      2.00000
    310      -0.8315      2.00000
    311      -0.8315      2.00000
    312      -0.8163      2.00000
    313      -0.8163      2.00000
    314      -0.8163      2.00000
    315      -0.8163      2.00000
    316      -0.7298      2.00000
    317      -0.7298      2.00000
    318      -0.6487      2.00000
    319      -0.6487      2.00000
    320      -0.6487      2.00000
    321      -0.6487      2.00000
    322      -0.6413      2.00000
    323      -0.6413      2.00000
    324      -0.6413      2.00000
    325      -0.6413      2.00000
    326      -0.6310      2.00000
    327      -0.6310      2.00000
    328      -0.6310      2.00000
    329      -0.6310      2.00000
    330      -0.5937      2.00000
    331      -0.5937      2.00000
    332      -0.5937      2.00000
    333      -0.5937      2.00000
    334      -0.5861      2.00000
    335      -0.5861      2.00000
    336      -0.4429      2.00000
    337      -0.4429      2.00000
    338      -0.4429      2.00000
    339      -0.4429      2.00000
    340      -0.4399      2.00000
    341      -0.4399      2.00000
    342      -0.4399      2.00000
    343      -0.4399      2.00000
    344      -0.4104      2.00000
    345      -0.4104      2.00000
    346      -0.4103      2.00000
    347      -0.4103      2.00000
    348      -0.4060      2.00000
    349      -0.4060      2.00000
    350      -0.3813      2.00000
    351      -0.3813      2.00000
    352      -0.3813      2.00000
    353      -0.3813      2.00000
    354      -0.3762      2.00000
    355      -0.3762      2.00000
    356      -0.3741      2.00000
    357      -0.3741      2.00000
    358      -0.3741      2.00000
    359      -0.3741      2.00000
    360      -0.3734      2.00000
    361      -0.3733      2.00000
    362      -0.3733      2.00000
    363      -0.3733      2.00000
    364      -0.3470      2.00000
    365      -0.3470      2.00000
    366      -0.3470      2.00000
    367      -0.3470      2.00000
    368      -0.3315      2.00000
    369      -0.3315      2.00000
    370      -0.2686      2.00000
    371      -0.2686      2.00000
    372      -0.2175      2.00000
    373      -0.2175      2.00000
    374      -0.2175      2.00000
    375      -0.2175      2.00000
    376      -0.2012      2.00000
    377      -0.2012      2.00000
    378      -0.1929      2.00000
    379      -0.1929      2.00000
    380      -0.1929      2.00000
    381      -0.1929      2.00000
    382      -0.1722      2.00000
    383      -0.1722      2.00000
    384      -0.1722      2.00000
    385      -0.1722      2.00000
    386      -0.1719      2.00000
    387      -0.1320      2.00000
    388      -0.1320      2.00000
    389      -0.1320      2.00000
    390      -0.1320      2.00000
    391      -0.0547      2.00000
    392      -0.0547      2.00000
    393      -0.0380      2.00000
    394      -0.0380      2.00000
    395      -0.0380      2.00000
    396      -0.0380      2.00000
    397      -0.0186      2.00000
    398      -0.0186      2.00000
    399      -0.0186      2.00000
    400      -0.0186      2.00000
    401       0.0411      2.00000
    402       0.0411      2.00000
    403       0.0411      2.00000
    404       0.0411      2.00000
    405       0.0850      2.00000
    406       0.0850      2.00000
    407       0.0850      2.00000
    408       0.0850      2.00000
    409       0.1318      2.00000
    410       0.1318      2.00000
    411       0.1318      2.00000
    412       0.1318      2.00000
    413       0.1429      2.00000
    414       0.1429      2.00000
    415       0.1429      2.00000
    416       0.1429      2.00000
    417       0.6584      2.00000
    418       0.6584      2.00000
    419       0.6906      2.00000
    420       0.7227      2.00000
    421       0.7228      2.00000
    422       0.7434      2.00000
    423       0.7652      2.00000
    424       0.7652      2.00000
    425       0.7652      2.00000
    426       0.7652      2.00000
    427       0.7766      2.00000
    428       0.7767      2.00000
    429       0.7889      2.00000
    430       0.7889      2.00000
    431       0.7889      2.00000
    432       0.7889      2.00000
    433       0.7958      2.00000
    434       0.7963      2.00000
    435       0.7963      2.00000
    436       0.7963      2.00000
    437       0.7963      2.00000
    438       0.7999      2.00000
    439       0.7999      2.00000
    440       0.8000      2.00000
    441       0.8000      2.00000
    442       0.8381      2.00000
    443       0.8382      2.00000
    444       0.8630      2.00000
    445       0.8631      2.00000
    446       0.8631      2.00000
    447       0.8631      2.00000
    448       0.8644      2.00000
    449       0.8644      2.00000
    450       0.8645      2.00000
    451       0.8645      2.00000
    452       0.8991      2.00000
    453       0.8991      2.00000
    454       0.8991      2.00000
    455       0.8991      2.00000
    456       0.9126      2.00000
    457       0.9126      2.00000
    458       0.9167      2.00000
    459       0.9168      2.00000
    460       0.9168      2.00000
    461       0.9168      2.00000
    462       0.9612      2.00000
    463       0.9613      2.00000
    464       1.0722      2.00000
    465       1.0722      2.00000
    466       1.0723      2.00000
    467       1.0723      2.00000
    468       1.1028      2.00000
    469       1.1028      2.00000
    470       1.1028      2.00000
    471       1.1028      2.00000
    472       1.1188      2.00000
    473       1.1652      2.00000
    474       1.1652      2.00000
    475       1.1652      2.00000
    476       1.1653      2.00000
    477       1.2041      2.00000
    478       1.2041      2.00000
    479       1.2041      2.00000
    480       1.2041      2.00000
    481       1.2054      2.00000
    482       1.2054      2.00000
    483       1.2054      2.00000
    484       1.2054      2.00000
    485       1.2124      2.00000
    486       1.2124      2.00000
    487       1.2372      2.00000
    488       1.2372      2.00000
    489       1.2372      2.00000
    490       1.2372      2.00000
    491       1.2704      2.00000
    492       1.2704      2.00000
    493       1.2704      2.00000
    494       1.2704      2.00000
    495       1.2951      2.00000
    496       1.2970      2.00000
    497       1.2970      2.00000
    498       1.4561      2.00000
    499       1.4561      2.00000
    500       1.4562      2.00000
    501       1.4562      2.00000
    502       1.5398      2.00000
    503       1.5398      2.00000
    504       1.5398      2.00000
    505       1.5398      2.00000
    506       1.5838      2.00000
    507       1.5839      2.00000
    508       1.5885      2.00000
    509       1.5885      2.00000
    510       1.5885      2.00000
    511       1.5885      2.00000
    512       1.6671      2.00000
    513       1.6671      2.00000
    514       1.6671      2.00000
    515       1.6672      2.00000
    516       1.7324      2.00000
    517       1.7324      2.00000
    518       1.7324      2.00000
    519       1.7324      2.00000
    520       1.7563      2.00000
    521       1.7563      2.00000
    522       1.7563      2.00000
    523       1.7564      2.00000
    524       1.8217      2.00000
    525       1.8218      2.00000
    526       1.8218      2.00000
    527       1.8218      2.00000
    528       1.8912      2.00000
    529       1.8912      2.00000
    530       1.9322      2.00000
    531       1.9322      2.00000
    532       1.9323      2.00000
    533       1.9323      2.00000
    534       2.0266      2.00000
    535       2.0266      2.00000
    536       2.0266      2.00000
    537       2.0266      2.00000
    538       2.1392      2.00000
    539       2.1392      2.00000
    540       2.2201      2.00000
    541       2.2201      2.00000
    542       2.2355      2.00000
    543       2.2355      2.00000
    544       2.2355      2.00000
    545       2.2355      2.00000
    546       2.2451      2.00000
    547       2.2451      2.00000
    548       2.2451      2.00000
    549       2.2451      2.00000
    550       2.2488      2.00000
    551       2.2488      2.00000
    552       2.2488      2.00000
    553       2.2488      2.00000
    554       2.4115      2.00000
    555       2.4115      2.00000
    556       2.4115      2.00000
    557       2.4115      2.00000
    558       2.4828      2.00000
    559       2.4828      2.00000
    560       2.4828      2.00000
    561       2.4828      2.00000
    562       2.5370      2.00000
    563       2.5370      2.00000
    564       2.5370      2.00000
    565       2.5370      2.00000
    566       2.5812      2.00000
    567       2.5812      2.00000
    568       2.5812      2.00000
    569       2.5812      2.00000
    570       2.7090      2.00000
    571       2.7090      2.00000
    572       2.7090      2.00000
    573       2.7090      2.00000
    574       3.1019      2.00000
    575       3.1019      2.00000
    576       3.1501      2.00000
    577       4.2015      0.00000
    578       5.4584      0.00000
    579       5.4584      0.00000
    580       5.4764      0.00000
    581       5.4764      0.00000
    582       5.4764      0.00000
    583       5.4764      0.00000
    584       5.8236      0.00000
    585       5.8236      0.00000
    586       5.8236      0.00000
    587       5.8236      0.00000
    588       6.0559      0.00000
    589       6.0559      0.00000
    590       6.1055      0.00000
    591       6.2210      0.00000
    592       6.2210      0.00000
    593       6.3329      0.00000
    594       6.3329      0.00000
    595       6.4141      0.00000
    596       6.4141      0.00000
    597       6.4141      0.00000
    598       6.4141      0.00000
    599       6.4694      0.00000
    600       6.4694      0.00000
    601       6.4694      0.00000
    602       6.4694      0.00000
    603       6.5965      0.00000
    604       6.5965      0.00000
    605       6.6425      0.00000
    606       6.8911      0.00000
    607       6.8911      0.00000
    608       6.8911      0.00000
    609       6.8911      0.00000
    610       6.9235      0.00000
    611       6.9235      0.00000
    612       6.9235      0.00000
    613       6.9235      0.00000
    614       6.9378      0.00000
    615       6.9378      0.00000
    616       6.9378      0.00000
    617       6.9378      0.00000
    618       6.9669      0.00000
    619       6.9669      0.00000
    620       6.9669      0.00000
    621       6.9669      0.00000
    622       6.9885      0.00000
    623       6.9885      0.00000
    624       7.3735      0.00000
    625       7.3735      0.00000
    626       7.3736      0.00000
    627       7.3736      0.00000
    628       7.4276      0.00000
    629       7.4276      0.00000
    630       7.4276      0.00000
    631       7.4276      0.00000
    632       7.6728      0.00000
    633       7.6728      0.00000
    634       7.6728      0.00000
    635       7.6728      0.00000
    636       7.7753      0.00000
    637       7.7753      0.00000
    638       8.0149      0.00000
    639       8.0149      0.00000
    640       8.0149      0.00000
    641       8.0149      0.00000
    642       8.2147      0.00000
    643       8.2147      0.00000
    644       8.2147      0.00000
    645       8.2147      0.00000
    646       8.2189      0.00000
    647       8.2189      0.00000
    648       8.2285      0.00000
    649       8.2285      0.00000
    650       8.4266      0.00000
    651       8.4266      0.00000
    652       8.4266      0.00000
    653       8.4266      0.00000
    654       8.4482      0.00000
    655       8.4482      0.00000
    656       8.5397      0.00000
    657       8.5397      0.00000
    658       8.5397      0.00000
    659       8.5397      0.00000
    660       8.6606      0.00000
    661       8.6606      0.00000
    662       8.6606      0.00000
    663       8.6606      0.00000
    664       8.7316      0.00000
    665       8.7316      0.00000
    666       8.8244      0.00000
    667       8.8244      0.00000
    668       8.8244      0.00000
    669       8.8244      0.00000
    670       8.8590      0.00000
    671       8.8591      0.00000
    672       8.8591      0.00000
    673       8.8591      0.00000
    674       8.9504      0.00000
    675       9.0153      0.00000
    676       9.0153      0.00000
    677       9.0154      0.00000
    678       9.0154      0.00000
    679       9.0785      0.00000
    680       9.0786      0.00000
    681       9.0789      0.00000
    682       9.0797      0.00000
    683       9.0893      0.00000
    684       9.0894      0.00000
    685       9.2716      0.00000
    686       9.2723      0.00000
    687       9.2762      0.00000
    688       9.2843      0.00000
    689       9.3458      0.00000
    690       9.3477      0.00000
    691       9.3620      0.00000
    692       9.3718      0.00000

 k-point     2 :       0.5000    0.0000    0.0000
  band No.  band energies     occupation 
      1     -13.6584      2.00000
      2     -13.6584      2.00000
      3     -13.6584      2.00000
      4     -13.6584      2.00000
      5     -13.6570      2.00000
      6     -13.6570      2.00000
      7     -13.6570      2.00000
      8     -13.6570      2.00000
      9     -13.6547      2.00000
     10     -13.6547      2.00000
     11     -13.6476      2.00000
     12     -13.6476      2.00000
     13     -13.6476      2.00000
     14     -13.6476      2.00000
     15     -13.6471      2.00000
     16     -13.6471      2.00000
     17     -13.6465      2.00000
     18     -13.6465      2.00000
     19     -13.6465      2.00000
     20     -13.6465      2.00000
     21     -13.6462      2.00000
     22     -13.6462      2.00000
     23     -13.6462      2.00000
     24     -13.6462      2.00000
     25     -13.6411      2.00000
     26     -13.6411      2.00000
     27     -13.6392      2.00000
     28     -13.6392      2.00000
     29     -13.6392      2.00000
     30     -13.6392      2.00000
     31     -13.6331      2.00000
     32     -13.6331      2.00000
     33     -13.6193      2.00000
     34     -13.6193      2.00000
     35     -13.6000      2.00000
     36     -13.6000      2.00000
     37     -13.6000      2.00000
     38     -13.6000      2.00000
     39     -13.5707      2.00000
     40     -13.5707      2.00000
     41     -13.5707      2.00000
     42     -13.5707      2.00000
     43     -13.5661      2.00000
     44     -13.5661      2.00000
     45     -13.5661      2.00000
     46     -13.5661      2.00000
     47     -13.5495      2.00000
     48     -13.5495      2.00000
     49     -13.5123      2.00000
     50     -13.5123      2.00000
     51     -13.4752      2.00000
     52     -13.4752      2.00000
     53     -13.4752      2.00000
     54     -13.4752      2.00000
     55     -13.4684      2.00000
     56     -13.4684      2.00000
     57     -13.4684      2.00000
     58     -13.4684      2.00000
     59     -13.4416      2.00000
     60     -13.4416      2.00000
     61     -13.4416      2.00000
     62     -13.4416      2.00000
     63     -13.3936      2.00000
     64     -13.3936      2.00000
     65     -13.3847      2.00000
     66     -13.3847      2.00000
     67     -13.3797      2.00000
     68     -13.3797      2.00000
     69     -13.3797      2.00000
     70     -13.3797      2.00000
     71     -13.3763      2.00000
     72     -13.3763      2.00000
     73     -13.3763      2.00000
     74     -13.3763      2.00000
     75     -13.3668      2.00000
     76     -13.3668      2.00000
     77     -13.3668      2.00000
     78     -13.3668      2.00000
     79     -13.3622      2.00000
     80     -13.3622      2.00000
     81     -13.3622      2.00000
     82     -13.3622      2.00000
     83     -13.3622      2.00000
     84     -13.3622      2.00000
     85     -13.3622      2.00000
     86     -13.3621      2.00000
     87     -13.3561      2.00000
     88     -13.3561      2.00000
     89     -13.3553      2.00000
     90     -13.3553      2.00000
     91     -13.3500      2.00000
     92     -13.3500      2.00000
     93     -13.3500      2.00000
     94     -13.3500      2.00000
     95     -13.3422      2.00000
     96     -13.3422      2.00000
     97     -13.2763      2.00000
     98     -13.2763      2.00000
     99     -13.2763      2.00000
    100     -13.2763      2.00000
    101     -13.2752      2.00000
    102     -13.2752      2.00000
    103     -13.2740      2.00000
    104     -13.2740      2.00000
    105     -13.2697      2.00000
    106     -13.2697      2.00000
    107     -13.2662      2.00000
    108     -13.2662      2.00000
    109     -13.2651      2.00000
    110     -13.2651      2.00000
    111     -13.2651      2.00000
    112     -13.2651      2.00000
    113     -13.2641      2.00000
    114     -13.2641      2.00000
    115     -13.2641      2.00000
    116     -13.2641      2.00000
    117     -13.2637      2.00000
    118     -13.2637      2.00000
    119     -13.2637      2.00000
    120     -13.2637      2.00000
    121     -13.2635      2.00000
    122     -13.2635      2.00000
    123     -13.2635      2.00000
    124     -13.2635      2.00000
    125     -13.2628      2.00000
    126     -13.2628      2.00000
    127     -13.2628      2.00000
    128     -13.2628      2.00000
    129     -13.2540      2.00000
    130     -13.2540      2.00000
    131     -13.2521      2.00000
    132     -13.2521      2.00000
    133     -13.2521      2.00000
    134     -13.2521      2.00000
    135     -13.2497      2.00000
    136     -13.2497      2.00000
    137     -13.2497      2.00000
    138     -13.2497      2.00000
    139     -13.2497      2.00000
    140     -13.2497      2.00000
    141     -13.2497      2.00000
    142     -13.2497      2.00000
    143     -13.2448      2.00000
    144     -13.2448      2.00000
    145     -13.2448      2.00000
    146     -13.2448      2.00000
    147     -13.2446      2.00000
    148     -13.2446      2.00000
    149     -13.2446      2.00000
    150     -13.2446      2.00000
    151     -13.2417      2.00000
    152     -13.2417      2.00000
    153     -13.2408      2.00000
    154     -13.2408      2.00000
    155     -13.2406      2.00000
    156     -13.2406      2.00000
    157     -13.2377      2.00000
    158     -13.2377      2.00000
    159     -13.2377      2.00000
    160     -13.2377      2.00000
    161     -11.7970      2.00000
    162     -11.7970      2.00000
    163     -11.6088      2.00000
    164     -11.6088      2.00000
    165     -11.6088      2.00000
    166     -11.6088      2.00000
    167     -11.2291      2.00000
    168     -11.2291      2.00000
    169     -11.2291      2.00000
    170     -11.2291      2.00000
    171     -11.2098      2.00000
    172     -11.2098      2.00000
    173     -11.2098      2.00000
    174     -11.2098      2.00000
    175     -11.1728      2.00000
    176     -11.1728      2.00000
    177     -11.1163      2.00000
    178     -11.1163      2.00000
    179     -10.8915      2.00000
    180     -10.8915      2.00000
    181     -10.8915      2.00000
    182     -10.8915      2.00000
    183     -10.8185      2.00000
    184     -10.8185      2.00000
    185     -10.8185      2.00000
    186     -10.8185      2.00000
    187     -10.6737      2.00000
    188     -10.6737      2.00000
    189     -10.6737      2.00000
    190     -10.6737      2.00000
    191     -10.6624      2.00000
    192     -10.6624      2.00000
    193     -10.6624      2.00000
    194     -10.6624      2.00000
    195     -10.6064      2.00000
    196     -10.6064      2.00000
    197     -10.5943      2.00000
    198     -10.5943      2.00000
    199     -10.5943      2.00000
    200     -10.5943      2.00000
    201     -10.5338      2.00000
    202     -10.5338      2.00000
    203     -10.5338      2.00000
    204     -10.5338      2.00000
    205     -10.4900      2.00000
    206     -10.4900      2.00000
    207     -10.4807      2.00000
    208     -10.4807      2.00000
    209     -10.4807      2.00000
    210     -10.4807      2.00000
    211     -10.4710      2.00000
    212     -10.4710      2.00000
    213     -10.4557      2.00000
    214     -10.4557      2.00000
    215     -10.4557      2.00000
    216     -10.4557      2.00000
    217     -10.3940      2.00000
    218     -10.3940      2.00000
    219     -10.3940      2.00000
    220     -10.3940      2.00000
    221     -10.3748      2.00000
    222     -10.3748      2.00000
    223     -10.3695      2.00000
    224     -10.3695      2.00000
    225      -3.7647      2.00000
    226      -3.7647      2.00000
    227      -3.6044      2.00000
    228      -3.6044      2.00000
    229      -3.6044      2.00000
    230      -3.6044      2.00000
    231      -3.5881      2.00000
    232      -3.5881      2.00000
    233      -3.5881      2.00000
    234      -3.5881      2.00000
    235      -3.5633      2.00000
    236      -3.5633      2.00000
    237      -3.5633      2.00000
    238      -3.5633      2.00000
    239      -3.3513      2.00000
    240      -3.3513      2.00000
    241      -3.2476      2.00000
    242      -3.2476      2.00000
    243      -3.2476      2.00000
    244      -3.2476      2.00000
    245      -3.1779      2.00000
    246      -3.1779      2.00000
    247      -3.1779      2.00000
    248      -3.1779      2.00000
    249      -3.1682      2.00000
    250      -3.1682      2.00000
    251      -2.9527      2.00000
    252      -2.9527      2.00000
    253      -2.9527      2.00000
    254      -2.9527      2.00000
    255      -2.8259      2.00000
    256      -2.8259      2.00000
    257      -2.1186      2.00000
    258      -2.1186      2.00000
    259      -2.1186      2.00000
    260      -2.1186      2.00000
    261      -1.9549      2.00000
    262      -1.9549      2.00000
    263      -1.9549      2.00000
    264      -1.9549      2.00000
    265      -1.7704      2.00000
    266      -1.7704      2.00000
    267      -1.7621      2.00000
    268      -1.7621      2.00000
    269      -1.7621      2.00000
    270      -1.7621      2.00000
    271      -1.7132      2.00000
    272      -1.7132      2.00000
    273      -1.7132      2.00000
    274      -1.7132      2.00000
    275      -1.6760      2.00000
    276      -1.6760      2.00000
    277      -1.6760      2.00000
    278      -1.6760      2.00000
    279      -1.4589      2.00000
    280      -1.4589      2.00000
    281      -1.3405      2.00000
    282      -1.3405      2.00000
    283      -1.3381      2.00000
    284      -1.3381      2.00000
    285      -1.3381      2.00000
    286      -1.3381      2.00000
    287      -1.2974      2.00000
    288      -1.2974      2.00000
    289      -1.2878      2.00000
    290      -1.2878      2.00000
    291      -1.2878      2.00000
    292      -1.2878      2.00000
    293      -1.2575      2.00000
    294      -1.2575      2.00000
    295      -0.9778      2.00000
    296      -0.9778      2.00000
    297      -0.9710      2.00000
    298      -0.9710      2.00000
    299      -0.9710      2.00000
    300      -0.9710      2.00000
    301      -0.9607      2.00000
    302      -0.9607      2.00000
    303      -0.9607      2.00000
    304      -0.9607      2.00000
    305      -0.7514      2.00000
    306      -0.7514      2.00000
    307      -0.7514      2.00000
    308      -0.7514      2.00000
    309      -0.7253      2.00000
    310      -0.7253      2.00000
    311      -0.7108      2.00000
    312      -0.7108      2.00000
    313      -0.7108      2.00000
    314      -0.7108      2.00000
    315      -0.6522      2.00000
    316      -0.6522      2.00000
    317      -0.6178      2.00000
    318      -0.6178      2.00000
    319      -0.6178      2.00000
    320      -0.6178      2.00000
    321      -0.6143      2.00000
    322      -0.6143      2.00000
    323      -0.6103      2.00000
    324      -0.6103      2.00000
    325      -0.6103      2.00000
    326      -0.6103      2.00000
    327      -0.5287      2.00000
    328      -0.5287      2.00000
    329      -0.5148      2.00000
    330      -0.5148      2.00000
    331      -0.4911      2.00000
    332      -0.4911      2.00000
    333      -0.4911      2.00000
    334      -0.4911      2.00000
    335      -0.4894      2.00000
    336      -0.4894      2.00000
    337      -0.4894      2.00000
    338      -0.4894      2.00000
    339      -0.4793      2.00000
    340      -0.4793      2.00000
    341      -0.4736      2.00000
    342      -0.4736      2.00000
    343      -0.4649      2.00000
    344      -0.4649      2.00000
    345      -0.4649      2.00000
    346      -0.4649      2.00000
    347      -0.4492      2.00000
    348      -0.4492      2.00000
    349      -0.4492      2.00000
    350      -0.4492      2.00000
    351      -0.4067      2.00000
    352      -0.4066      2.00000
    353      -0.4066      2.00000
    354      -0.4066      2.00000
    355      -0.3920      2.00000
    356      -0.3920      2.00000
    357      -0.3920      2.00000
    358      -0.3920      2.00000
    359      -0.3267      2.00000
    360      -0.3267      2.00000
    361      -0.3147      2.00000
    362      -0.3147      2.00000
    363      -0.3146      2.00000
    364      -0.3146      2.00000
    365      -0.2529      2.00000
    366      -0.2529      2.00000
    367      -0.2529      2.00000
    368      -0.2529      2.00000
    369      -0.2354      2.00000
    370      -0.2354      2.00000
    371      -0.2354      2.00000
    372      -0.2354      2.00000
    373      -0.2285      2.00000
    374      -0.2285      2.00000
    375      -0.2159      2.00000
    376      -0.2159      2.00000
    377      -0.2027      2.00000
    378      -0.2027      2.00000
    379      -0.1810      2.00000
    380      -0.1810      2.00000
    381      -0.1810      2.00000
    382      -0.1810      2.00000
    383      -0.1499      2.00000
    384      -0.1499      2.00000
    385      -0.1499      2.00000
    386      -0.1499      2.00000
    387      -0.1172      2.00000
    388      -0.1172      2.00000
    389      -0.0938      2.00000
    390      -0.0938      2.00000
    391      -0.0938      2.00000
    392      -0.0938      2.00000
    393       0.0096      2.00000
    394       0.0096      2.00000
    395       0.0096      2.00000
    396       0.0096      2.00000
    397       0.0359      2.00000
    398       0.0359      2.00000
    399       0.0359      2.00000
    400       0.0359      2.00000
    401       0.0476      2.00000
    402       0.0476      2.00000
    403       0.0476      2.00000
    404       0.0476      2.00000
    405       0.0553      2.00000
    406       0.0553      2.00000
    407       0.1001      2.00000
    408       0.1001      2.00000
    409       0.1002      2.00000
    410       0.1002      2.00000
    411       0.1002      2.00000
    412       0.1002      2.00000
    413       0.1305      2.00000
    414       0.1305      2.00000
    415       0.1306      2.00000
    416       0.1306      2.00000
    417       0.7410      2.00000
    418       0.7410      2.00000
    419       0.7647      2.00000
    420       0.7647      2.00000
    421       0.7647      2.00000
    422       0.7647      2.00000
    423       0.7673      2.00000
    424       0.7673      2.00000
    425       0.7899      2.00000
    426       0.7899      2.00000
    427       0.7899      2.00000
    428       0.7899      2.00000
    429       0.8015      2.00000
    430       0.8015      2.00000
    431       0.8015      2.00000
    432       0.8015      2.00000
    433       0.8188      2.00000
    434       0.8188      2.00000
    435       0.8188      2.00000
    436       0.8188      2.00000
    437       0.8245      2.00000
    438       0.8245      2.00000
    439       0.8245      2.00000
    440       0.8245      2.00000
    441       0.8448      2.00000
    442       0.8448      2.00000
    443       0.8448      2.00000
    444       0.8448      2.00000
    445       0.8501      2.00000
    446       0.8502      2.00000
    447       0.8545      2.00000
    448       0.8545      2.00000
    449       0.8594      2.00000
    450       0.8594      2.00000
    451       0.8970      2.00000
    452       0.8970      2.00000
    453       0.9056      2.00000
    454       0.9056      2.00000
    455       0.9057      2.00000
    456       0.9057      2.00000
    457       0.9349      2.00000
    458       0.9349      2.00000
    459       0.9349      2.00000
    460       0.9349      2.00000
    461       0.9463      2.00000
    462       0.9463      2.00000
    463       0.9463      2.00000
    464       0.9463      2.00000
    465       0.9772      2.00000
    466       0.9772      2.00000
    467       0.9772      2.00000
    468       0.9772      2.00000
    469       0.9961      2.00000
    470       0.9961      2.00000
    471       1.0134      2.00000
    472       1.0134      2.00000
    473       1.1075      2.00000
    474       1.1076      2.00000
    475       1.1076      2.00000
    476       1.1076      2.00000
    477       1.1245      2.00000
    478       1.1245      2.00000
    479       1.1425      2.00000
    480       1.1425      2.00000
    481       1.1426      2.00000
    482       1.1426      2.00000
    483       1.2447      2.00000
    484       1.2447      2.00000
    485       1.3007      2.00000
    486       1.3007      2.00000
    487       1.3007      2.00000
    488       1.3007      2.00000
    489       1.3566      2.00000
    490       1.3566      2.00000
    491       1.3566      2.00000
    492       1.3566      2.00000
    493       1.4851      2.00000
    494       1.4851      2.00000
    495       1.4864      2.00000
    496       1.4864      2.00000
    497       1.4864      2.00000
    498       1.4864      2.00000
    499       1.4938      2.00000
    500       1.4938      2.00000
    501       1.5381      2.00000
    502       1.5381      2.00000
    503       1.5532      2.00000
    504       1.5532      2.00000
    505       1.5532      2.00000
    506       1.5532      2.00000
    507       1.5829      2.00000
    508       1.5829      2.00000
    509       1.5978      2.00000
    510       1.5978      2.00000
    511       1.5979      2.00000
    512       1.5979      2.00000
    513       1.6106      2.00000
    514       1.6106      2.00000
    515       1.6106      2.00000
    516       1.6106      2.00000
    517       1.6129      2.00000
    518       1.6129      2.00000
    519       1.6129      2.00000
    520       1.6129      2.00000
    521       1.7647      2.00000
    522       1.7647      2.00000
    523       1.7648      2.00000
    524       1.7648      2.00000
    525       1.8543      2.00000
    526       1.8543      2.00000
    527       1.8543      2.00000
    528       1.8543      2.00000
    529       1.9077      2.00000
    530       1.9077      2.00000
    531       1.9092      2.00000
    532       1.9092      2.00000
    533       1.9092      2.00000
    534       1.9092      2.00000
    535       2.0040      2.00000
    536       2.0040      2.00000
    537       2.0040      2.00000
    538       2.0040      2.00000
    539       2.1128      2.00000
    540       2.1128      2.00000
    541       2.1129      2.00000
    542       2.1129      2.00000
    543       2.1651      2.00000
    544       2.1651      2.00000
    545       2.2494      2.00000
    546       2.2494      2.00000
    547       2.3433      2.00000
    548       2.3433      2.00000
    549       2.3433      2.00000
    550       2.3433      2.00000
    551       2.3460      2.00000
    552       2.3460      2.00000
    553       2.3460      2.00000
    554       2.3460      2.00000
    555       2.3505      2.00000
    556       2.3505      2.00000
    557       2.3505      2.00000
    558       2.3505      2.00000
    559       2.3616      2.00000
    560       2.3616      2.00000
    561       2.3616      2.00000
    562       2.3616      2.00000
    563       2.3617      2.00000
    564       2.3617      2.00000
    565       2.5028      2.00000
    566       2.5028      2.00000
    567       2.5028      2.00000
    568       2.5028      2.00000
    569       2.7135      2.00000
    570       2.7135      2.00000
    571       2.7810      2.00000
    572       2.7810      2.00000
    573       2.9358      2.00000
    574       2.9358      2.00000
    575       2.9358      2.00000
    576       2.9358      2.00000
    577       5.5040      0.00000
    578       5.5040      0.00000
    579       5.7752      0.00000
    580       5.7752      0.00000
    581       5.7752      0.00000
    582       5.7752      0.00000
    583       5.9544      0.00000
    584       5.9544      0.00000
    585       5.9544      0.00000
    586       5.9544      0.00000
    587       6.0438      0.00000
    588       6.0438      0.00000
    589       6.0438      0.00000
    590       6.0438      0.00000
    591       6.2013      0.00000
    592       6.2013      0.00000
    593       6.2013      0.00000
    594       6.2013      0.00000
    595       6.2340      0.00000
    596       6.2340      0.00000
    597       6.4126      0.00000
    598       6.4126      0.00000
    599       6.4189      0.00000
    600       6.4189      0.00000
    601       6.4189      0.00000
    602       6.4189      0.00000
    603       6.5642      0.00000
    604       6.5642      0.00000
    605       6.6083      0.00000
    606       6.6083      0.00000
    607       6.6083      0.00000
    608       6.6083      0.00000
    609       6.8829      0.00000
    610       6.8829      0.00000
    611       6.9548      0.00000
    612       6.9548      0.00000
    613       7.0230      0.00000
    614       7.0230      0.00000
    615       7.1221      0.00000
    616       7.1221      0.00000
    617       7.1221      0.00000
    618       7.1221      0.00000
    619       7.2338      0.00000
    620       7.2338      0.00000
    621       7.2338      0.00000
    622       7.2338      0.00000
    623       7.2980      0.00000
    624       7.2980      0.00000
    625       7.2980      0.00000
    626       7.2980      0.00000
    627       7.4046      0.00000
    628       7.4046      0.00000
    629       7.4046      0.00000
    630       7.4046      0.00000
    631       7.6416      0.00000
    632       7.6416      0.00000
    633       7.6416      0.00000
    634       7.6416      0.00000
    635       7.7904      0.00000
    636       7.7904      0.00000
    637       7.8464      0.00000
    638       7.8464      0.00000
    639       7.8746      0.00000
    640       7.8746      0.00000
    641       8.0181      0.00000
    642       8.0181      0.00000
    643       8.0181      0.00000
    644       8.0181      0.00000
    645       8.0891      0.00000
    646       8.0891      0.00000
    647       8.0891      0.00000
    648       8.0891      0.00000
    649       8.1802      0.00000
    650       8.1802      0.00000
    651       8.1918      0.00000
    652       8.1918      0.00000
    653       8.2206      0.00000
    654       8.2206      0.00000
    655       8.2207      0.00000
    656       8.2207      0.00000
    657       8.4148      0.00000
    658       8.4148      0.00000
    659       8.4148      0.00000
    660       8.4148      0.00000
    661       8.4557      0.00000
    662       8.4557      0.00000
    663       8.4557      0.00000
    664       8.4557      0.00000
    665       8.5747      0.00000
    666       8.5747      0.00000
    667       8.7552      0.00000
    668       8.7552      0.00000
    669       8.7552      0.00000
    670       8.7552      0.00000
    671       8.8211      0.00000
    672       8.8211      0.00000
    673       8.8211      0.00000
    674       8.8211      0.00000
    675       8.8511      0.00000
    676       8.8511      0.00000
    677       8.8750      0.00000
    678       8.8750      0.00000
    679       8.8750      0.00000
    680       8.8750      0.00000
    681       9.0076      0.00000
    682       9.0076      0.00000
    683       9.0077      0.00000
    684       9.0078      0.00000
    685       9.0788      0.00000
    686       9.0789      0.00000
    687       9.0792      0.00000
    688       9.0795      0.00000
    689       9.2596      0.00000
    690       9.2621      0.00000
    691       9.2648      0.00000
    692       9.2969      0.00000

 k-point     3 :       0.5000    0.5000    0.0000
  band No.  band energies     occupation 
      1     -13.6519      2.00000
      2     -13.6519      2.00000
      3     -13.6519      2.00000
      4     -13.6519      2.00000
      5     -13.6519      2.00000
      6     -13.6519      2.00000
      7     -13.6519      2.00000
      8     -13.6519      2.00000
      9     -13.6517      2.00000
     10     -13.6517      2.00000
     11     -13.6517      2.00000
     12     -13.6517      2.00000
     13     -13.6517      2.00000
     14     -13.6517      2.00000
     15     -13.6517      2.00000
     16     -13.6517      2.00000
     17     -13.6482      2.00000
     18     -13.6482      2.00000
     19     -13.6482      2.00000
     20     -13.6482      2.00000
     21     -13.6443      2.00000
     22     -13.6443      2.00000
     23     -13.6443      2.00000
     24     -13.6443      2.00000
     25     -13.6443      2.00000
     26     -13.6443      2.00000
     27     -13.6443      2.00000
     28     -13.6443      2.00000
     29     -13.6435      2.00000
     30     -13.6435      2.00000
     31     -13.6435      2.00000
     32     -13.6435      2.00000
     33     -13.6043      2.00000
     34     -13.6043      2.00000
     35     -13.6043      2.00000
     36     -13.6043      2.00000
     37     -13.5878      2.00000
     38     -13.5878      2.00000
     39     -13.5878      2.00000
     40     -13.5878      2.00000
     41     -13.5878      2.00000
     42     -13.5878      2.00000
     43     -13.5878      2.00000
     44     -13.5878      2.00000
     45     -13.5275      2.00000
     46     -13.5275      2.00000
     47     -13.5275      2.00000
     48     -13.5275      2.00000
     49     -13.5275      2.00000
     50     -13.5275      2.00000
     51     -13.5275      2.00000
     52     -13.5275      2.00000
     53     -13.4518      2.00000
     54     -13.4518      2.00000
     55     -13.4518      2.00000
     56     -13.4518      2.00000
     57     -13.4518      2.00000
     58     -13.4518      2.00000
     59     -13.4518      2.00000
     60     -13.4518      2.00000
     61     -13.4177      2.00000
     62     -13.4177      2.00000
     63     -13.4177      2.00000
     64     -13.4177      2.00000
     65     -13.3796      2.00000
     66     -13.3796      2.00000
     67     -13.3796      2.00000
     68     -13.3795      2.00000
     69     -13.3715      2.00000
     70     -13.3715      2.00000
     71     -13.3715      2.00000
     72     -13.3715      2.00000
     73     -13.3715      2.00000
     74     -13.3715      2.00000
     75     -13.3715      2.00000
     76     -13.3715      2.00000
     77     -13.3653      2.00000
     78     -13.3653      2.00000
     79     -13.3653      2.00000
     80     -13.3653      2.00000
     81     -13.3594      2.00000
     82     -13.3594      2.00000
     83     -13.3594      2.00000
     84     -13.3594      2.00000
     85     -13.3594      2.00000
     86     -13.3594      2.00000
     87     -13.3594      2.00000
     88     -13.3594      2.00000
     89     -13.3575      2.00000
     90     -13.3575      2.00000
     91     -13.3575      2.00000
     92     -13.3575      2.00000
     93     -13.3575      2.00000
     94     -13.3575      2.00000
     95     -13.3575      2.00000
     96     -13.3575      2.00000
     97     -13.2709      2.00000
     98     -13.2709      2.00000
     99     -13.2709      2.00000
    100     -13.2709      2.00000
    101     -13.2709      2.00000
    102     -13.2709      2.00000
    103     -13.2709      2.00000
    104     -13.2709      2.00000
    105     -13.2694      2.00000
    106     -13.2694      2.00000
    107     -13.2694      2.00000
    108     -13.2694      2.00000
    109     -13.2694      2.00000
    110     -13.2694      2.00000
    111     -13.2694      2.00000
    112     -13.2694      2.00000
    113     -13.2656      2.00000
    114     -13.2656      2.00000
    115     -13.2656      2.00000
    116     -13.2656      2.00000
    117     -13.2616      2.00000
    118     -13.2616      2.00000
    119     -13.2616      2.00000
    120     -13.2616      2.00000
    121     -13.2614      2.00000
    122     -13.2614      2.00000
    123     -13.2614      2.00000
    124     -13.2614      2.00000
    125     -13.2614      2.00000
    126     -13.2614      2.00000
    127     -13.2614      2.00000
    128     -13.2614      2.00000
    129     -13.2543      2.00000
    130     -13.2543      2.00000
    131     -13.2543      2.00000
    132     -13.2543      2.00000
    133     -13.2517      2.00000
    134     -13.2517      2.00000
    135     -13.2517      2.00000
    136     -13.2517      2.00000
    137     -13.2517      2.00000
    138     -13.2517      2.00000
    139     -13.2517      2.00000
    140     -13.2517      2.00000
    141     -13.2423      2.00000
    142     -13.2423      2.00000
    143     -13.2423      2.00000
    144     -13.2423      2.00000
    145     -13.2423      2.00000
    146     -13.2423      2.00000
    147     -13.2423      2.00000
    148     -13.2423      2.00000
    149     -13.2413      2.00000
    150     -13.2413      2.00000
    151     -13.2413      2.00000
    152     -13.2413      2.00000
    153     -13.2392      2.00000
    154     -13.2392      2.00000
    155     -13.2392      2.00000
    156     -13.2392      2.00000
    157     -13.2392      2.00000
    158     -13.2392      2.00000
    159     -13.2392      2.00000
    160     -13.2392      2.00000
    161     -11.6289      2.00000
    162     -11.6289      2.00000
    163     -11.6289      2.00000
    164     -11.6289      2.00000
    165     -11.4651      2.00000
    166     -11.4651      2.00000
    167     -11.4651      2.00000
    168     -11.4651      2.00000
    169     -11.4651      2.00000
    170     -11.4651      2.00000
    171     -11.4651      2.00000
    172     -11.4651      2.00000
    173     -11.0685      2.00000
    174     -11.0685      2.00000
    175     -11.0685      2.00000
    176     -11.0685      2.00000
    177     -11.0685      2.00000
    178     -11.0685      2.00000
    179     -11.0685      2.00000
    180     -11.0685      2.00000
    181     -10.6882      2.00000
    182     -10.6882      2.00000
    183     -10.6882      2.00000
    184     -10.6882      2.00000
    185     -10.6882      2.00000
    186     -10.6882      2.00000
    187     -10.6882      2.00000
    188     -10.6882      2.00000
    189     -10.5890      2.00000
    190     -10.5890      2.00000
    191     -10.5890      2.00000
    192     -10.5890      2.00000
    193     -10.5601      2.00000
    194     -10.5601      2.00000
    195     -10.5601      2.00000
    196     -10.5601      2.00000
    197     -10.5601      2.00000
    198     -10.5601      2.00000
    199     -10.5601      2.00000
    200     -10.5601      2.00000
    201     -10.5518      2.00000
    202     -10.5518      2.00000
    203     -10.5518      2.00000
    204     -10.5518      2.00000
    205     -10.5518      2.00000
    206     -10.5518      2.00000
    207     -10.5518      2.00000
    208     -10.5518      2.00000
    209     -10.5357      2.00000
    210     -10.5357      2.00000
    211     -10.5357      2.00000
    212     -10.5357      2.00000
    213     -10.4949      2.00000
    214     -10.4949      2.00000
    215     -10.4949      2.00000
    216     -10.4949      2.00000
    217     -10.4949      2.00000
    218     -10.4949      2.00000
    219     -10.4949      2.00000
    220     -10.4949      2.00000
    221     -10.3896      2.00000
    222     -10.3896      2.00000
    223     -10.3896      2.00000
    224     -10.3896      2.00000
    225      -3.7278      2.00000
    226      -3.7278      2.00000
    227      -3.7278      2.00000
    228      -3.7278      2.00000
    229      -3.5954      2.00000
    230      -3.5954      2.00000
    231      -3.5954      2.00000
    232      -3.5954      2.00000
    233      -3.5954      2.00000
    234      -3.5954      2.00000
    235      -3.5954      2.00000
    236      -3.5954      2.00000
    237      -3.2862      2.00000
    238      -3.2862      2.00000
    239      -3.2862      2.00000
    240      -3.2862      2.00000
    241      -3.2862      2.00000
    242      -3.2862      2.00000
    243      -3.2862      2.00000
    244      -3.2862      2.00000
    245      -3.0791      2.00000
    246      -3.0791      2.00000
    247      -3.0791      2.00000
    248      -3.0791      2.00000
    249      -3.0791      2.00000
    250      -3.0791      2.00000
    251      -3.0791      2.00000
    252      -3.0791      2.00000
    253      -3.0717      2.00000
    254      -3.0717      2.00000
    255      -3.0717      2.00000
    256      -3.0717      2.00000
    257      -1.9806      2.00000
    258      -1.9806      2.00000
    259      -1.9806      2.00000
    260      -1.9806      2.00000
    261      -1.9806      2.00000
    262      -1.9806      2.00000
    263      -1.9806      2.00000
    264      -1.9806      2.00000
    265      -1.9309      2.00000
    266      -1.9309      2.00000
    267      -1.9309      2.00000
    268      -1.9309      2.00000
    269      -1.7390      2.00000
    270      -1.7390      2.00000
    271      -1.7390      2.00000
    272      -1.7390      2.00000
    273      -1.7390      2.00000
    274      -1.7390      2.00000
    275      -1.7390      2.00000
    276      -1.7390      2.00000
    277      -1.3855      2.00000
    278      -1.3855      2.00000
    279      -1.3855      2.00000
    280      -1.3855      2.00000
    281      -1.3855      2.00000
    282      -1.3855      2.00000
    283      -1.3855      2.00000
    284      -1.3855      2.00000
    285      -1.3435      2.00000
    286      -1.3435      2.00000
    287      -1.3435      2.00000
    288      -1.3435      2.00000
    289      -1.3143      2.00000
    290      -1.3143      2.00000
    291      -1.3143      2.00000
    292      -1.3143      2.00000
    293      -0.8605      2.00000
    294      -0.8605      2.00000
    295      -0.8605      2.00000
    296      -0.8605      2.00000
    297      -0.8605      2.00000
    298      -0.8605      2.00000
    299      -0.8605      2.00000
    300      -0.8605      2.00000
    301      -0.8576      2.00000
    302      -0.8576      2.00000
    303      -0.8576      2.00000
    304      -0.8576      2.00000
    305      -0.8576      2.00000
    306      -0.8576      2.00000
    307      -0.8576      2.00000
    308      -0.8576      2.00000
    309      -0.8009      2.00000
    310      -0.8009      2.00000
    311      -0.8009      2.00000
    312      -0.8009      2.00000
    313      -0.7103      2.00000
    314      -0.7103      2.00000
    315      -0.7103      2.00000
    316      -0.7103      2.00000
    317      -0.7103      2.00000
    318      -0.7103      2.00000
    319      -0.7103      2.00000
    320      -0.7103      2.00000
    321      -0.6937      2.00000
    322      -0.6937      2.00000
    323      -0.6937      2.00000
    324      -0.6937      2.00000
    325      -0.6937      2.00000
    326      -0.6937      2.00000
    327      -0.6937      2.00000
    328      -0.6937      2.00000
    329      -0.5689      2.00000
    330      -0.5689      2.00000
    331      -0.5688      2.00000
    332      -0.5688      2.00000
    333      -0.4864      2.00000
    334      -0.4864      2.00000
    335      -0.4864      2.00000
    336      -0.4864      2.00000
    337      -0.4864      2.00000
    338      -0.4864      2.00000
    339      -0.4864      2.00000
    340      -0.4864      2.00000
    341      -0.4235      2.00000
    342      -0.4235      2.00000
    343      -0.4235      2.00000
    344      -0.4235      2.00000
    345      -0.4235      2.00000
    346      -0.4235      2.00000
    347      -0.4235      2.00000
    348      -0.4235      2.00000
    349      -0.4095      2.00000
    350      -0.4095      2.00000
    351      -0.4095      2.00000
    352      -0.4095      2.00000
    353      -0.3982      2.00000
    354      -0.3982      2.00000
    355      -0.3982      2.00000
    356      -0.3982      2.00000
    357      -0.2968      2.00000
    358      -0.2968      2.00000
    359      -0.2968      2.00000
    360      -0.2968      2.00000
    361      -0.2968      2.00000
    362      -0.2968      2.00000
    363      -0.2968      2.00000
    364      -0.2968      2.00000
    365      -0.2904      2.00000
    366      -0.2904      2.00000
    367      -0.2904      2.00000
    368      -0.2904      2.00000
    369      -0.2904      2.00000
    370      -0.2904      2.00000
    371      -0.2904      2.00000
    372      -0.2904      2.00000
    373      -0.2120      2.00000
    374      -0.2120      2.00000
    375      -0.2120      2.00000
    376      -0.2120      2.00000
    377      -0.2120      2.00000
    378      -0.2120      2.00000
    379      -0.2120      2.00000
    380      -0.2120      2.00000
    381      -0.1911      2.00000
    382      -0.1911      2.00000
    383      -0.1911      2.00000
    384      -0.1911      2.00000
    385      -0.0520      2.00000
    386      -0.0520      2.00000
    387      -0.0520      2.00000
    388      -0.0520      2.00000
    389      -0.0383      2.00000
    390      -0.0383      2.00000
    391      -0.0383      2.00000
    392      -0.0383      2.00000
    393      -0.0383      2.00000
    394      -0.0383      2.00000
    395      -0.0383      2.00000
    396      -0.0383      2.00000
    397      -0.0362      2.00000
    398      -0.0362      2.00000
    399      -0.0362      2.00000
    400      -0.0362      2.00000
    401      -0.0362      2.00000
    402      -0.0362      2.00000
    403      -0.0361      2.00000
    404      -0.0361      2.00000
    405       0.0619      2.00000
    406       0.0619      2.00000
    407       0.0619      2.00000
    408       0.0619      2.00000
    409       0.0619      2.00000
    410       0.0619      2.00000
    411       0.0619      2.00000
    412       0.0619      2.00000
    413       0.2015      2.00000
    414       0.2015      2.00000
    415       0.2015      2.00000
    416       0.2015      2.00000
    417       0.7576      2.00000
    418       0.7576      2.00000
    419       0.7576      2.00000
    420       0.7576      2.00000
    421       0.7597      2.00000
    422       0.7598      2.00000
    423       0.7598      2.00000
    424       0.7598      2.00000
    425       0.7598      2.00000
    426       0.7598      2.00000
    427       0.7598      2.00000
    428       0.7598      2.00000
    429       0.8114      2.00000
    430       0.8114      2.00000
    431       0.8114      2.00000
    432       0.8114      2.00000
    433       0.8115      2.00000
    434       0.8115      2.00000
    435       0.8115      2.00000
    436       0.8115      2.00000
    437       0.8640      2.00000
    438       0.8640      2.00000
    439       0.8640      2.00000
    440       0.8640      2.00000
    441       0.8640      2.00000
    442       0.8640      2.00000
    443       0.8640      2.00000
    444       0.8640      2.00000
    445       0.8744      2.00000
    446       0.8744      2.00000
    447       0.8744      2.00000
    448       0.8744      2.00000
    449       0.9608      2.00000
    450       0.9608      2.00000
    451       0.9608      2.00000
    452       0.9608      2.00000
    453       0.9811      2.00000
    454       0.9811      2.00000
    455       0.9811      2.00000
    456       0.9811      2.00000
    457       0.9811      2.00000
    458       0.9811      2.00000
    459       0.9811      2.00000
    460       0.9811      2.00000
    461       1.0202      2.00000
    462       1.0202      2.00000
    463       1.0203      2.00000
    464       1.0203      2.00000
    465       1.0203      2.00000
    466       1.0203      2.00000
    467       1.0203      2.00000
    468       1.0203      2.00000
    469       1.0320      2.00000
    470       1.0320      2.00000
    471       1.0320      2.00000
    472       1.0320      2.00000
    473       1.0514      2.00000
    474       1.0514      2.00000
    475       1.0514      2.00000
    476       1.0514      2.00000
    477       1.0514      2.00000
    478       1.0514      2.00000
    479       1.0514      2.00000
    480       1.0514      2.00000
    481       1.2733      2.00000
    482       1.2733      2.00000
    483       1.2733      2.00000
    484       1.2733      2.00000
    485       1.2800      2.00000
    486       1.2800      2.00000
    487       1.2800      2.00000
    488       1.2800      2.00000
    489       1.2800      2.00000
    490       1.2800      2.00000
    491       1.2800      2.00000
    492       1.2800      2.00000
    493       1.3785      2.00000
    494       1.3786      2.00000
    495       1.3786      2.00000
    496       1.3786      2.00000
    497       1.3786      2.00000
    498       1.3786      2.00000
    499       1.3786      2.00000
    500       1.3786      2.00000
    501       1.4684      2.00000
    502       1.4684      2.00000
    503       1.4684      2.00000
    504       1.4684      2.00000
    505       1.4684      2.00000
    506       1.4684      2.00000
    507       1.4684      2.00000
    508       1.4684      2.00000
    509       1.6025      2.00000
    510       1.6025      2.00000
    511       1.6025      2.00000
    512       1.6025      2.00000
    513       1.6025      2.00000
    514       1.6025      2.00000
    515       1.6025      2.00000
    516       1.6025      2.00000
    517       1.6437      2.00000
    518       1.6437      2.00000
    519       1.6437      2.00000
    520       1.6437      2.00000
    521       1.6676      2.00000
    522       1.6676      2.00000
    523       1.6676      2.00000
    524       1.6676      2.00000
    525       1.7264      2.00000
    526       1.7264      2.00000
    527       1.7264      2.00000
    528       1.7264      2.00000
    529       1.8936      2.00000
    530       1.8936      2.00000
    531       1.8936      2.00000
    532       1.8936      2.00000
    533       1.8936      2.00000
    534       1.8936      2.00000
    535       1.8936      2.00000
    536       1.8936      2.00000
    537       2.1009      2.00000
    538       2.1009      2.00000
    539       2.1009      2.00000
    540       2.1009      2.00000
    541       2.1009      2.00000
    542       2.1009      2.00000
    543       2.1009      2.00000
    544       2.1009      2.00000
    545       2.1964      2.00000
    546       2.1964      2.00000
    547       2.1965      2.00000
    548       2.1965      2.00000
    549       2.1965      2.00000
    550       2.1965      2.00000
    551       2.1965      2.00000
    552       2.1965      2.00000
    553       2.4528      2.00000
    554       2.4528      2.00000
    555       2.4528      2.00000
    556       2.4528      2.00000
    557       2.6756      2.00000
    558       2.6756      2.00000
    559       2.6756      2.00000
    560       2.6756      2.00000
    561       2.6756      2.00000
    562       2.6756      2.00000
    563       2.6756      2.00000
    564       2.6756      2.00000
    565       2.6970      2.00000
    566       2.6970      2.00000
    567       2.6970      2.00000
    568       2.6970      2.00000
    569       2.6970      2.00000
    570       2.6970      2.00000
    571       2.6970      2.00000
    572       2.6970      2.00000
    573       2.9364      2.00000
    574       2.9364      2.00000
    575       2.9365      2.00000
    576       2.9365      2.00000
    577       5.5666      0.00000
    578       5.5666      0.00000
    579       5.5666      0.00000
    580       5.5667      0.00000
    581       5.5667      0.00000
    582       5.5667      0.00000
    583       5.5667      0.00000
    584       5.5667      0.00000
    585       5.7657      0.00000
    586       5.7657      0.00000
    587       5.7657      0.00000
    588       5.7657      0.00000
    589       6.1764      0.00000
    590       6.1764      0.00000
    591       6.1764      0.00000
    592       6.1764      0.00000
    593       6.1764      0.00000
    594       6.1764      0.00000
    595       6.1764      0.00000
    596       6.1764      0.00000
    597       6.4450      0.00000
    598       6.4450      0.00000
    599       6.4450      0.00000
    600       6.4450      0.00000
    601       6.4450      0.00000
    602       6.4450      0.00000
    603       6.4450      0.00000
    604       6.4450      0.00000
    605       6.5382      0.00000
    606       6.5382      0.00000
    607       6.5382      0.00000
    608       6.5382      0.00000
    609       7.0604      0.00000
    610       7.0604      0.00000
    611       7.0604      0.00000
    612       7.0604      0.00000
    613       7.0604      0.00000
    614       7.0604      0.00000
    615       7.0604      0.00000
    616       7.0604      0.00000
    617       7.1628      0.00000
    618       7.1628      0.00000
    619       7.1628      0.00000
    620       7.1628      0.00000
    621       7.1628      0.00000
    622       7.1628      0.00000
    623       7.1628      0.00000
    624       7.1628      0.00000
    625       7.2738      0.00000
    626       7.2738      0.00000
    627       7.2738      0.00000
    628       7.2738      0.00000
    629       7.2738      0.00000
    630       7.2738      0.00000
    631       7.2738      0.00000
    632       7.2738      0.00000
    633       7.3926      0.00000
    634       7.3926      0.00000
    635       7.3926      0.00000
    636       7.3926      0.00000
    637       7.7598      0.00000
    638       7.7598      0.00000
    639       7.7598      0.00000
    640       7.7598      0.00000
    641       8.1290      0.00000
    642       8.1290      0.00000
    643       8.1290      0.00000
    644       8.1290      0.00000
    645       8.1290      0.00000
    646       8.1290      0.00000
    647       8.1290      0.00000
    648       8.1290      0.00000
    649       8.2085      0.00000
    650       8.2085      0.00000
    651       8.2085      0.00000
    652       8.2085      0.00000
    653       8.2085      0.00000
    654       8.2085      0.00000
    655       8.2085      0.00000
    656       8.2085      0.00000
    657       8.3674      0.00000
    658       8.3674      0.00000
    659       8.3674      0.00000
    660       8.3674      0.00000
    661       8.5320      0.00000
    662       8.5320      0.00000
    663       8.5320      0.00000
    664       8.5320      0.00000
    665       8.9031      0.00000
    666       8.9031      0.00000
    667       8.9031      0.00000
    668       8.9031      0.00000
    669       8.9166      0.00000
    670       8.9166      0.00000
    671       8.9166      0.00000
    672       8.9166      0.00000
    673       8.9166      0.00000
    674       8.9166      0.00000
    675       8.9166      0.00000
    676       8.9166      0.00000
    677       9.1178      0.00000
    678       9.1178      0.00000
    679       9.1178      0.00000
    680       9.1178      0.00000
    681       9.1178      0.00000
    682       9.1178      0.00000
    683       9.1178      0.00000
    684       9.1178      0.00000
    685       9.4109      0.00000
    686       9.4110      0.00000
    687       9.4115      0.00000
    688       9.4132      0.00000
    689       9.5958      0.00000
    690       9.5996      0.00000
    691       9.6104      0.00000
    692       9.6401      0.00000

 k-point     4 :       0.0000    0.0000    0.5000
  band No.  band energies     occupation 
      1     -13.6594      2.00000
      2     -13.6594      2.00000
      3     -13.6594      2.00000
      4     -13.6594      2.00000
      5     -13.6594      2.00000
      6     -13.6594      2.00000
      7     -13.6594      2.00000
      8     -13.6594      2.00000
      9     -13.6557      2.00000
     10     -13.6557      2.00000
     11     -13.6557      2.00000
     12     -13.6557      2.00000
     13     -13.6557      2.00000
     14     -13.6557      2.00000
     15     -13.6557      2.00000
     16     -13.6557      2.00000
     17     -13.6431      2.00000
     18     -13.6431      2.00000
     19     -13.6431      2.00000
     20     -13.6431      2.00000
     21     -13.6380      2.00000
     22     -13.6380      2.00000
     23     -13.6380      2.00000
     24     -13.6380      2.00000
     25     -13.6380      2.00000
     26     -13.6380      2.00000
     27     -13.6380      2.00000
     28     -13.6380      2.00000
     29     -13.6353      2.00000
     30     -13.6353      2.00000
     31     -13.6353      2.00000
     32     -13.6353      2.00000
     33     -13.6280      2.00000
     34     -13.6280      2.00000
     35     -13.5875      2.00000
     36     -13.5875      2.00000
     37     -13.5875      2.00000
     38     -13.5875      2.00000
     39     -13.5875      2.00000
     40     -13.5875      2.00000
     41     -13.5875      2.00000
     42     -13.5875      2.00000
     43     -13.5768      2.00000
     44     -13.5768      2.00000
     45     -13.5214      2.00000
     46     -13.5214      2.00000
     47     -13.5214      2.00000
     48     -13.5214      2.00000
     49     -13.5214      2.00000
     50     -13.5214      2.00000
     51     -13.5214      2.00000
     52     -13.5214      2.00000
     53     -13.4860      2.00000
     54     -13.4860      2.00000
     55     -13.4537      2.00000
     56     -13.4537      2.00000
     57     -13.4537      2.00000
     58     -13.4537      2.00000
     59     -13.4537      2.00000
     60     -13.4537      2.00000
     61     -13.4537      2.00000
     62     -13.4537      2.00000
     63     -13.3986      2.00000
     64     -13.3986      2.00000
     65     -13.3785      2.00000
     66     -13.3785      2.00000
     67     -13.3785      2.00000
     68     -13.3785      2.00000
     69     -13.3785      2.00000
     70     -13.3785      2.00000
     71     -13.3785      2.00000
     72     -13.3785      2.00000
     73     -13.3745      2.00000
     74     -13.3745      2.00000
     75     -13.3745      2.00000
     76     -13.3745      2.00000
     77     -13.3745      2.00000
     78     -13.3745      2.00000
     79     -13.3745      2.00000
     80     -13.3745      2.00000
     81     -13.3569      2.00000
     82     -13.3569      2.00000
     83     -13.3569      2.00000
     84     -13.3569      2.00000
     85     -13.3493      2.00000
     86     -13.3493      2.00000
     87     -13.3493      2.00000
     88     -13.3493      2.00000
     89     -13.3493      2.00000
     90     -13.3493      2.00000
     91     -13.3493      2.00000
     92     -13.3493      2.00000
     93     -13.3433      2.00000
     94     -13.3433      2.00000
     95     -13.3433      2.00000
     96     -13.3433      2.00000
     97     -13.2810      2.00000
     98     -13.2810      2.00000
     99     -13.2765      2.00000
    100     -13.2765      2.00000
    101     -13.2733      2.00000
    102     -13.2733      2.00000
    103     -13.2692      2.00000
    104     -13.2692      2.00000
    105     -13.2692      2.00000
    106     -13.2692      2.00000
    107     -13.2692      2.00000
    108     -13.2692      2.00000
    109     -13.2692      2.00000
    110     -13.2692      2.00000
    111     -13.2672      2.00000
    112     -13.2672      2.00000
    113     -13.2672      2.00000
    114     -13.2672      2.00000
    115     -13.2672      2.00000
    116     -13.2672      2.00000
    117     -13.2672      2.00000
    118     -13.2672      2.00000
    119     -13.2612      2.00000
    120     -13.2612      2.00000
    121     -13.2587      2.00000
    122     -13.2587      2.00000
    123     -13.2567      2.00000
    124     -13.2567      2.00000
    125     -13.2567      2.00000
    126     -13.2567      2.00000
    127     -13.2567      2.00000
    128     -13.2567      2.00000
    129     -13.2567      2.00000
    130     -13.2567      2.00000
    131     -13.2507      2.00000
    132     -13.2507      2.00000
    133     -13.2507      2.00000
    134     -13.2507      2.00000
    135     -13.2507      2.00000
    136     -13.2507      2.00000
    137     -13.2507      2.00000
    138     -13.2507      2.00000
    139     -13.2477      2.00000
    140     -13.2477      2.00000
    141     -13.2477      2.00000
    142     -13.2477      2.00000
    143     -13.2477      2.00000
    144     -13.2477      2.00000
    145     -13.2477      2.00000
    146     -13.2477      2.00000
    147     -13.2451      2.00000
    148     -13.2451      2.00000
    149     -13.2412      2.00000
    150     -13.2412      2.00000
    151     -13.2412      2.00000
    152     -13.2412      2.00000
    153     -13.2412      2.00000
    154     -13.2412      2.00000
    155     -13.2412      2.00000
    156     -13.2412      2.00000
    157     -13.2367      2.00000
    158     -13.2367      2.00000
    159     -13.2356      2.00000
    160     -13.2356      2.00000
    161     -11.9332      2.00000
    162     -11.9332      2.00000
    163     -11.5369      2.00000
    164     -11.5369      2.00000
    165     -11.3376      2.00000
    166     -11.3376      2.00000
    167     -11.3376      2.00000
    168     -11.3376      2.00000
    169     -11.3376      2.00000
    170     -11.3376      2.00000
    171     -11.3376      2.00000
    172     -11.3376      2.00000
    173     -10.9703      2.00000
    174     -10.9703      2.00000
    175     -10.9703      2.00000
    176     -10.9703      2.00000
    177     -10.9703      2.00000
    178     -10.9703      2.00000
    179     -10.9703      2.00000
    180     -10.9703      2.00000
    181     -10.9401      2.00000
    182     -10.9401      2.00000
    183     -10.8942      2.00000
    184     -10.8942      2.00000
    185     -10.8942      2.00000
    186     -10.8942      2.00000
    187     -10.8942      2.00000
    188     -10.8942      2.00000
    189     -10.8942      2.00000
    190     -10.8942      2.00000
    191     -10.6089      2.00000
    192     -10.6089      2.00000
    193     -10.6089      2.00000
    194     -10.6089      2.00000
    195     -10.6089      2.00000
    196     -10.6089      2.00000
    197     -10.6089      2.00000
    198     -10.6089      2.00000
    199     -10.6036      2.00000
    200     -10.6036      2.00000
    201     -10.6036      2.00000
    202     -10.6036      2.00000
    203     -10.6035      2.00000
    204     -10.6035      2.00000
    205     -10.6035      2.00000
    206     -10.6035      2.00000
    207     -10.4575      2.00000
    208     -10.4575      2.00000
    209     -10.3888      2.00000
    210     -10.3888      2.00000
    211     -10.3888      2.00000
    212     -10.3888      2.00000
    213     -10.3888      2.00000
    214     -10.3888      2.00000
    215     -10.3888      2.00000
    216     -10.3888      2.00000
    217     -10.3886      2.00000
    218     -10.3886      2.00000
    219     -10.3885      2.00000
    220     -10.3885      2.00000
    221     -10.3683      2.00000
    222     -10.3683      2.00000
    223     -10.3683      2.00000
    224     -10.3683      2.00000
    225      -3.8638      2.00000
    226      -3.8638      2.00000
    227      -3.5742      2.00000
    228      -3.5742      2.00000
    229      -3.5742      2.00000
    230      -3.5742      2.00000
    231      -3.5741      2.00000
    232      -3.5741      2.00000
    233      -3.5741      2.00000
    234      -3.5741      2.00000
    235      -3.5598      2.00000
    236      -3.5598      2.00000
    237      -3.4588      2.00000
    238      -3.4588      2.00000
    239      -3.4588      2.00000
    240      -3.4588      2.00000
    241      -3.4588      2.00000
    242      -3.4588      2.00000
    243      -3.4588      2.00000
    244      -3.4588      2.00000
    245      -3.2233      2.00000
    246      -3.2233      2.00000
    247      -2.8865      2.00000
    248      -2.8865      2.00000
    249      -2.8865      2.00000
    250      -2.8865      2.00000
    251      -2.8865      2.00000
    252      -2.8865      2.00000
    253      -2.8865      2.00000
    254      -2.8865      2.00000
    255      -2.8472      2.00000
    256      -2.8472      2.00000
    257      -2.1510      2.00000
    258      -2.1510      2.00000
    259      -2.1510      2.00000
    260      -2.1510      2.00000
    261      -2.1510      2.00000
    262      -2.1510      2.00000
    263      -2.1510      2.00000
    264      -2.1510      2.00000
    265      -1.7083      2.00000
    266      -1.7083      2.00000
    267      -1.7083      2.00000
    268      -1.7083      2.00000
    269      -1.7083      2.00000
    270      -1.7083      2.00000
    271      -1.7083      2.00000
    272      -1.7083      2.00000
    273      -1.6883      2.00000
    274      -1.6883      2.00000
    275      -1.5066      2.00000
    276      -1.5066      2.00000
    277      -1.3834      2.00000
    278      -1.3834      2.00000
    279      -1.3834      2.00000
    280      -1.3834      2.00000
    281      -1.3834      2.00000
    282      -1.3834      2.00000
    283      -1.3834      2.00000
    284      -1.3834      2.00000
    285      -1.2330      2.00000
    286      -1.2330      2.00000
    287      -1.2330      2.00000
    288      -1.2330      2.00000
    289      -1.2330      2.00000
    290      -1.2330      2.00000
    291      -1.2330      2.00000
    292      -1.2330      2.00000
    293      -1.1372      2.00000
    294      -1.1372      2.00000
    295      -1.1056      2.00000
    296      -1.1056      2.00000
    297      -0.9669      2.00000
    298      -0.9669      2.00000
    299      -0.8933      2.00000
    300      -0.8933      2.00000
    301      -0.8932      2.00000
    302      -0.8932      2.00000
    303      -0.8932      2.00000
    304      -0.8932      2.00000
    305      -0.8932      2.00000
    306      -0.8932      2.00000
    307      -0.7571      2.00000
    308      -0.7571      2.00000
    309      -0.7571      2.00000
    310      -0.7571      2.00000
    311      -0.7571      2.00000
    312      -0.7571      2.00000
    313      -0.7571      2.00000
    314      -0.7571      2.00000
    315      -0.7292      2.00000
    316      -0.7292      2.00000
    317      -0.7292      2.00000
    318      -0.7292      2.00000
    319      -0.7292      2.00000
    320      -0.7292      2.00000
    321      -0.7292      2.00000
    322      -0.7292      2.00000
    323      -0.6992      2.00000
    324      -0.6992      2.00000
    325      -0.6992      2.00000
    326      -0.6992      2.00000
    327      -0.5974      2.00000
    328      -0.5974      2.00000
    329      -0.5974      2.00000
    330      -0.5974      2.00000
    331      -0.5565      2.00000
    332      -0.5565      2.00000
    333      -0.5160      2.00000
    334      -0.5160      2.00000
    335      -0.5160      2.00000
    336      -0.5160      2.00000
    337      -0.5160      2.00000
    338      -0.5159      2.00000
    339      -0.5159      2.00000
    340      -0.5159      2.00000
    341      -0.4380      2.00000
    342      -0.4380      2.00000
    343      -0.4380      2.00000
    344      -0.4380      2.00000
    345      -0.4380      2.00000
    346      -0.4380      2.00000
    347      -0.4380      2.00000
    348      -0.4380      2.00000
    349      -0.3976      2.00000
    350      -0.3976      2.00000
    351      -0.3976      2.00000
    352      -0.3976      2.00000
    353      -0.3831      2.00000
    354      -0.3831      2.00000
    355      -0.3830      2.00000
    356      -0.3830      2.00000
    357      -0.3830      2.00000
    358      -0.3830      2.00000
    359      -0.3830      2.00000
    360      -0.3830      2.00000
    361      -0.3754      2.00000
    362      -0.3754      2.00000
    363      -0.3753      2.00000
    364      -0.3753      2.00000
    365      -0.2673      2.00000
    366      -0.2673      2.00000
    367      -0.2300      2.00000
    368      -0.2300      2.00000
    369      -0.2300      2.00000
    370      -0.2300      2.00000
    371      -0.2300      2.00000
    372      -0.2300      2.00000
    373      -0.2300      2.00000
    374      -0.2300      2.00000
    375      -0.2015      2.00000
    376      -0.2015      2.00000
    377      -0.1996      2.00000
    378      -0.1996      2.00000
    379      -0.1995      2.00000
    380      -0.1995      2.00000
    381      -0.1766      2.00000
    382      -0.1766      2.00000
    383      -0.1766      2.00000
    384      -0.1766      2.00000
    385      -0.1766      2.00000
    386      -0.1766      2.00000
    387      -0.1766      2.00000
    388      -0.1766      2.00000
    389      -0.0982      2.00000
    390      -0.0982      2.00000
    391      -0.0982      2.00000
    392      -0.0982      2.00000
    393      -0.0277      2.00000
    394      -0.0277      2.00000
    395      -0.0277      2.00000
    396      -0.0277      2.00000
    397      -0.0277      2.00000
    398      -0.0277      2.00000
    399      -0.0277      2.00000
    400      -0.0277      2.00000
    401       0.0899      2.00000
    402       0.0899      2.00000
    403       0.0899      2.00000
    404       0.0899      2.00000
    405       0.0899      2.00000
    406       0.0899      2.00000
    407       0.0899      2.00000
    408       0.0899      2.00000
    409       0.1159      2.00000
    410       0.1159      2.00000
    411       0.1159      2.00000
    412       0.1159      2.00000
    413       0.1159      2.00000
    414       0.1159      2.00000
    415       0.1159      2.00000
    416       0.1159      2.00000
    417       0.6656      2.00000
    418       0.6656      2.00000
    419       0.6806      2.00000
    420       0.6806      2.00000
    421       0.7654      2.00000
    422       0.7654      2.00000
    423       0.7827      2.00000
    424       0.7827      2.00000
    425       0.7828      2.00000
    426       0.7828      2.00000
    427       0.7828      2.00000
    428       0.7828      2.00000
    429       0.7828      2.00000
    430       0.7828      2.00000
    431       0.7906      2.00000
    432       0.7906      2.00000
    433       0.7973      2.00000
    434       0.7974      2.00000
    435       0.7974      2.00000
    436       0.7974      2.00000
    437       0.7974      2.00000
    438       0.7974      2.00000
    439       0.7974      2.00000
    440       0.7974      2.00000
    441       0.8148      2.00000
    442       0.8148      2.00000
    443       0.8267      2.00000
    444       0.8267      2.00000
    445       0.8509      2.00000
    446       0.8509      2.00000
    447       0.8509      2.00000
    448       0.8509      2.00000
    449       0.8509      2.00000
    450       0.8509      2.00000
    451       0.8509      2.00000
    452       0.8509      2.00000
    453       0.9223      2.00000
    454       0.9223      2.00000
    455       0.9250      2.00000
    456       0.9250      2.00000
    457       0.9250      2.00000
    458       0.9250      2.00000
    459       0.9251      2.00000
    460       0.9251      2.00000
    461       0.9251      2.00000
    462       0.9251      2.00000
    463       1.0782      2.00000
    464       1.0782      2.00000
    465       1.1149      2.00000
    466       1.1149      2.00000
    467       1.1149      2.00000
    468       1.1149      2.00000
    469       1.1150      2.00000
    470       1.1150      2.00000
    471       1.1150      2.00000
    472       1.1150      2.00000
    473       1.1316      2.00000
    474       1.1316      2.00000
    475       1.1316      2.00000
    476       1.1316      2.00000
    477       1.1316      2.00000
    478       1.1316      2.00000
    479       1.1316      2.00000
    480       1.1316      2.00000
    481       1.2223      2.00000
    482       1.2223      2.00000
    483       1.2223      2.00000
    484       1.2223      2.00000
    485       1.2223      2.00000
    486       1.2223      2.00000
    487       1.2223      2.00000
    488       1.2223      2.00000
    489       1.2783      2.00000
    490       1.2783      2.00000
    491       1.2784      2.00000
    492       1.2784      2.00000
    493       1.2927      2.00000
    494       1.2927      2.00000
    495       1.3733      2.00000
    496       1.3733      2.00000
    497       1.3734      2.00000
    498       1.3734      2.00000
    499       1.3734      2.00000
    500       1.3734      2.00000
    501       1.3734      2.00000
    502       1.3734      2.00000
    503       1.3964      2.00000
    504       1.3964      2.00000
    505       1.6795      2.00000
    506       1.6795      2.00000
    507       1.6795      2.00000
    508       1.6795      2.00000
    509       1.6795      2.00000
    510       1.6795      2.00000
    511       1.6795      2.00000
    512       1.6795      2.00000
    513       1.6988      2.00000
    514       1.6988      2.00000
    515       1.6988      2.00000
    516       1.6988      2.00000
    517       1.7229      2.00000
    518       1.7229      2.00000
    519       1.7229      2.00000
    520       1.7229      2.00000
    521       1.7229      2.00000
    522       1.7229      2.00000
    523       1.7230      2.00000
    524       1.7230      2.00000
    525       1.8491      2.00000
    526       1.8491      2.00000
    527       1.9724      2.00000
    528       1.9724      2.00000
    529       1.9724      2.00000
    530       1.9725      2.00000
    531       1.9725      2.00000
    532       1.9725      2.00000
    533       1.9725      2.00000
    534       1.9725      2.00000
    535       2.0538      2.00000
    536       2.0538      2.00000
    537       2.0538      2.00000
    538       2.0538      2.00000
    539       2.0538      2.00000
    540       2.0538      2.00000
    541       2.0538      2.00000
    542       2.0538      2.00000
    543       2.2472      2.00000
    544       2.2472      2.00000
    545       2.2472      2.00000
    546       2.2472      2.00000
    547       2.2473      2.00000
    548       2.2473      2.00000
    549       2.2473      2.00000
    550       2.2473      2.00000
    551       2.3706      2.00000
    552       2.3706      2.00000
    553       2.3706      2.00000
    554       2.3706      2.00000
    555       2.4947      2.00000
    556       2.4947      2.00000
    557       2.4947      2.00000
    558       2.4947      2.00000
    559       2.4947      2.00000
    560       2.4947      2.00000
    561       2.4947      2.00000
    562       2.4947      2.00000
    563       2.5319      2.00000
    564       2.5319      2.00000
    565       2.5319      2.00000
    566       2.5319      2.00000
    567       2.5319      2.00000
    568       2.5319      2.00000
    569       2.5319      2.00000
    570       2.5320      2.00000
    571       2.7581      2.00000
    572       2.7581      2.00000
    573       2.9908      2.00000
    574       2.9908      2.00000
    575       2.9908      2.00000
    576       2.9908      2.00000
    577       4.6888      0.00000
    578       4.6888      0.00000
    579       5.6378      0.00000
    580       5.6378      0.00000
    581       5.6378      0.00000
    582       5.6378      0.00000
    583       5.6378      0.00000
    584       5.6378      0.00000
    585       5.6378      0.00000
    586       5.6378      0.00000
    587       6.0116      0.00000
    588       6.0116      0.00000
    589       6.1646      0.00000
    590       6.1646      0.00000
    591       6.2798      0.00000
    592       6.2798      0.00000
    593       6.2799      0.00000
    594       6.2799      0.00000
    595       6.3686      0.00000
    596       6.3686      0.00000
    597       6.4378      0.00000
    598       6.4378      0.00000
    599       6.4378      0.00000
    600       6.4378      0.00000
    601       6.4378      0.00000
    602       6.4378      0.00000
    603       6.4378      0.00000
    604       6.4378      0.00000
    605       6.6415      0.00000
    606       6.6415      0.00000
    607       6.6734      0.00000
    608       6.6734      0.00000
    609       6.9394      0.00000
    610       6.9394      0.00000
    611       6.9394      0.00000
    612       6.9394      0.00000
    613       6.9394      0.00000
    614       6.9394      0.00000
    615       6.9394      0.00000
    616       6.9394      0.00000
    617       7.1392      0.00000
    618       7.1392      0.00000
    619       7.1392      0.00000
    620       7.1392      0.00000
    621       7.1392      0.00000
    622       7.1392      0.00000
    623       7.1393      0.00000
    624       7.1393      0.00000
    625       7.2924      0.00000
    626       7.2924      0.00000
    627       7.5396      0.00000
    628       7.5396      0.00000
    629       7.5396      0.00000
    630       7.5396      0.00000
    631       7.5396      0.00000
    632       7.5396      0.00000
    633       7.5396      0.00000
    634       7.5396      0.00000
    635       7.7053      0.00000
    636       7.7053      0.00000
    637       7.7053      0.00000
    638       7.7053      0.00000
    639       8.0917      0.00000
    640       8.0917      0.00000
    641       8.0917      0.00000
    642       8.0917      0.00000
    643       8.0917      0.00000
    644       8.0917      0.00000
    645       8.0917      0.00000
    646       8.0917      0.00000
    647       8.2334      0.00000
    648       8.2334      0.00000
    649       8.3444      0.00000
    650       8.3444      0.00000
    651       8.4819      0.00000
    652       8.4819      0.00000
    653       8.5641      0.00000
    654       8.5641      0.00000
    655       8.5641      0.00000
    656       8.5641      0.00000
    657       8.5641      0.00000
    658       8.5641      0.00000
    659       8.5641      0.00000
    660       8.5641      0.00000
    661       8.8808      0.00000
    662       8.8808      0.00000
    663       8.8808      0.00000
    664       8.8808      0.00000
    665       8.8808      0.00000
    666       8.8808      0.00000
    667       8.8808      0.00000
    668       8.8809      0.00000
    669       8.9570      0.00000
    670       8.9570      0.00000
    671       8.9570      0.00000
    672       8.9570      0.00000
    673       8.9571      0.00000
    674       8.9571      0.00000
    675       8.9572      0.00000
    676       8.9575      0.00000
    677       9.0112      0.00000
    678       9.0115      0.00000
    679       9.0826      0.00000
    680       9.0826      0.00000
    681       9.0827      0.00000
    682       9.0828      0.00000
    683       9.0831      0.00000
    684       9.0832      0.00000
    685       9.0838      0.00000
    686       9.0875      0.00000
    687       9.1655      0.00000
    688       9.1783      0.00000
    689       9.3122      0.00000
    690       9.3157      0.00000
    691       9.3274      0.00000
    692       9.3289      0.00000

 k-point     5 :       0.5000    0.0000    0.5000
  band No.  band energies     occupation 
      1     -13.6578      2.00000
      2     -13.6578      2.00000
      3     -13.6578      2.00000
      4     -13.6578      2.00000
      5     -13.6578      2.00000
      6     -13.6578      2.00000
      7     -13.6578      2.00000
      8     -13.6577      2.00000
      9     -13.6525      2.00000
     10     -13.6525      2.00000
     11     -13.6525      2.00000
     12     -13.6525      2.00000
     13     -13.6464      2.00000
     14     -13.6464      2.00000
     15     -13.6464      2.00000
     16     -13.6464      2.00000
     17     -13.6464      2.00000
     18     -13.6464      2.00000
     19     -13.6464      2.00000
     20     -13.6464      2.00000
     21     -13.6459      2.00000
     22     -13.6459      2.00000
     23     -13.6459      2.00000
     24     -13.6459      2.00000
     25     -13.6405      2.00000
     26     -13.6405      2.00000
     27     -13.6405      2.00000
     28     -13.6405      2.00000
     29     -13.6360      2.00000
     30     -13.6360      2.00000
     31     -13.6360      2.00000
     32     -13.6360      2.00000
     33     -13.6149      2.00000
     34     -13.6149      2.00000
     35     -13.6149      2.00000
     36     -13.6149      2.00000
     37     -13.5734      2.00000
     38     -13.5734      2.00000
     39     -13.5734      2.00000
     40     -13.5734      2.00000
     41     -13.5685      2.00000
     42     -13.5685      2.00000
     43     -13.5685      2.00000
     44     -13.5685      2.00000
     45     -13.5685      2.00000
     46     -13.5685      2.00000
     47     -13.5685      2.00000
     48     -13.5685      2.00000
     49     -13.4828      2.00000
     50     -13.4828      2.00000
     51     -13.4828      2.00000
     52     -13.4828      2.00000
     53     -13.4718      2.00000
     54     -13.4718      2.00000
     55     -13.4718      2.00000
     56     -13.4718      2.00000
     57     -13.4718      2.00000
     58     -13.4718      2.00000
     59     -13.4718      2.00000
     60     -13.4718      2.00000
     61     -13.4090      2.00000
     62     -13.4090      2.00000
     63     -13.4090      2.00000
     64     -13.4090      2.00000
     65     -13.3780      2.00000
     66     -13.3780      2.00000
     67     -13.3780      2.00000
     68     -13.3780      2.00000
     69     -13.3780      2.00000
     70     -13.3780      2.00000
     71     -13.3780      2.00000
     72     -13.3780      2.00000
     73     -13.3768      2.00000
     74     -13.3768      2.00000
     75     -13.3768      2.00000
     76     -13.3768      2.00000
     77     -13.3622      2.00000
     78     -13.3622      2.00000
     79     -13.3622      2.00000
     80     -13.3622      2.00000
     81     -13.3622      2.00000
     82     -13.3622      2.00000
     83     -13.3622      2.00000
     84     -13.3622      2.00000
     85     -13.3590      2.00000
     86     -13.3590      2.00000
     87     -13.3590      2.00000
     88     -13.3590      2.00000
     89     -13.3542      2.00000
     90     -13.3542      2.00000
     91     -13.3542      2.00000
     92     -13.3542      2.00000
     93     -13.3447      2.00000
     94     -13.3447      2.00000
     95     -13.3447      2.00000
     96     -13.3446      2.00000
     97     -13.2768      2.00000
     98     -13.2768      2.00000
     99     -13.2768      2.00000
    100     -13.2768      2.00000
    101     -13.2734      2.00000
    102     -13.2734      2.00000
    103     -13.2734      2.00000
    104     -13.2734      2.00000
    105     -13.2704      2.00000
    106     -13.2704      2.00000
    107     -13.2704      2.00000
    108     -13.2704      2.00000
    109     -13.2640      2.00000
    110     -13.2640      2.00000
    111     -13.2640      2.00000
    112     -13.2640      2.00000
    113     -13.2640      2.00000
    114     -13.2640      2.00000
    115     -13.2640      2.00000
    116     -13.2640      2.00000
    117     -13.2631      2.00000
    118     -13.2631      2.00000
    119     -13.2631      2.00000
    120     -13.2631      2.00000
    121     -13.2631      2.00000
    122     -13.2631      2.00000
    123     -13.2631      2.00000
    124     -13.2631      2.00000
    125     -13.2625      2.00000
    126     -13.2625      2.00000
    127     -13.2625      2.00000
    128     -13.2625      2.00000
    129     -13.2557      2.00000
    130     -13.2557      2.00000
    131     -13.2557      2.00000
    132     -13.2557      2.00000
    133     -13.2497      2.00000
    134     -13.2497      2.00000
    135     -13.2497      2.00000
    136     -13.2497      2.00000
    137     -13.2497      2.00000
    138     -13.2497      2.00000
    139     -13.2497      2.00000
    140     -13.2497      2.00000
    141     -13.2462      2.00000
    142     -13.2462      2.00000
    143     -13.2462      2.00000
    144     -13.2462      2.00000
    145     -13.2447      2.00000
    146     -13.2447      2.00000
    147     -13.2447      2.00000
    148     -13.2447      2.00000
    149     -13.2447      2.00000
    150     -13.2447      2.00000
    151     -13.2447      2.00000
    152     -13.2447      2.00000
    153     -13.2392      2.00000
    154     -13.2392      2.00000
    155     -13.2392      2.00000
    156     -13.2392      2.00000
    157     -13.2383      2.00000
    158     -13.2383      2.00000
    159     -13.2383      2.00000
    160     -13.2383      2.00000
    161     -11.7480      2.00000
    162     -11.7480      2.00000
    163     -11.7480      2.00000
    164     -11.7480      2.00000
    165     -11.3994      2.00000
    166     -11.3994      2.00000
    167     -11.3994      2.00000
    168     -11.3994      2.00000
    169     -11.2199      2.00000
    170     -11.2199      2.00000
    171     -11.2199      2.00000
    172     -11.2199      2.00000
    173     -11.2199      2.00000
    174     -11.2199      2.00000
    175     -11.2199      2.00000
    176     -11.2199      2.00000
    177     -10.8812      2.00000
    178     -10.8812      2.00000
    179     -10.8812      2.00000
    180     -10.8812      2.00000
    181     -10.8593      2.00000
    182     -10.8593      2.00000
    183     -10.8593      2.00000
    184     -10.8593      2.00000
    185     -10.8593      2.00000
    186     -10.8593      2.00000
    187     -10.8593      2.00000
    188     -10.8593      2.00000
    189     -10.6312      2.00000
    190     -10.6312      2.00000
    191     -10.6312      2.00000
    192     -10.6312      2.00000
    193     -10.6312      2.00000
    194     -10.6312      2.00000
    195     -10.6312      2.00000
    196     -10.6312      2.00000
    197     -10.5893      2.00000
    198     -10.5893      2.00000
    199     -10.5893      2.00000
    200     -10.5893      2.00000
    201     -10.5449      2.00000
    202     -10.5449      2.00000
    203     -10.5449      2.00000
    204     -10.5449      2.00000
    205     -10.4662      2.00000
    206     -10.4662      2.00000
    207     -10.4662      2.00000
    208     -10.4662      2.00000
    209     -10.4662      2.00000
    210     -10.4662      2.00000
    211     -10.4662      2.00000
    212     -10.4662      2.00000
    213     -10.4507      2.00000
    214     -10.4507      2.00000
    215     -10.4507      2.00000
    216     -10.4507      2.00000
    217     -10.4046      2.00000
    218     -10.4046      2.00000
    219     -10.4046      2.00000
    220     -10.4046      2.00000
    221     -10.3794      2.00000
    222     -10.3794      2.00000
    223     -10.3794      2.00000
    224     -10.3794      2.00000
    225      -3.7210      2.00000
    226      -3.7210      2.00000
    227      -3.7210      2.00000
    228      -3.7210      2.00000
    229      -3.5770      2.00000
    230      -3.5770      2.00000
    231      -3.5770      2.00000
    232      -3.5770      2.00000
    233      -3.5770      2.00000
    234      -3.5770      2.00000
    235      -3.5770      2.00000
    236      -3.5769      2.00000
    237      -3.4534      2.00000
    238      -3.4534      2.00000
    239      -3.4534      2.00000
    240      -3.4534      2.00000
    241      -3.2119      2.00000
    242      -3.2118      2.00000
    243      -3.2118      2.00000
    244      -3.2118      2.00000
    245      -3.2118      2.00000
    246      -3.2118      2.00000
    247      -3.2118      2.00000
    248      -3.2118      2.00000
    249      -3.0776      2.00000
    250      -3.0776      2.00000
    251      -3.0776      2.00000
    252      -3.0776      2.00000
    253      -2.8602      2.00000
    254      -2.8602      2.00000
    255      -2.8602      2.00000
    256      -2.8602      2.00000
    257      -2.0507      2.00000
    258      -2.0507      2.00000
    259      -2.0507      2.00000
    260      -2.0507      2.00000
    261      -2.0507      2.00000
    262      -2.0507      2.00000
    263      -2.0507      2.00000
    264      -2.0507      2.00000
    265      -1.7339      2.00000
    266      -1.7339      2.00000
    267      -1.7339      2.00000
    268      -1.7339      2.00000
    269      -1.7282      2.00000
    270      -1.7282      2.00000
    271      -1.7282      2.00000
    272      -1.7282      2.00000
    273      -1.7282      2.00000
    274      -1.7282      2.00000
    275      -1.7282      2.00000
    276      -1.7282      2.00000
    277      -1.5853      2.00000
    278      -1.5853      2.00000
    279      -1.5853      2.00000
    280      -1.5853      2.00000
    281      -1.4078      2.00000
    282      -1.4078      2.00000
    283      -1.4078      2.00000
    284      -1.4078      2.00000
    285      -1.1610      2.00000
    286      -1.1610      2.00000
    287      -1.1610      2.00000
    288      -1.1610      2.00000
    289      -1.1457      2.00000
    290      -1.1457      2.00000
    291      -1.1457      2.00000
    292      -1.1456      2.00000
    293      -1.1456      2.00000
    294      -1.1456      2.00000
    295      -1.1456      2.00000
    296      -1.1456      2.00000
    297      -1.1187      2.00000
    298      -1.1187      2.00000
    299      -1.1187      2.00000
    300      -1.1187      2.00000
    301      -1.0603      2.00000
    302      -1.0603      2.00000
    303      -1.0603      2.00000
    304      -1.0603      2.00000
    305      -0.7025      2.00000
    306      -0.7025      2.00000
    307      -0.7025      2.00000
    308      -0.7025      2.00000
    309      -0.6675      2.00000
    310      -0.6675      2.00000
    311      -0.6675      2.00000
    312      -0.6675      2.00000
    313      -0.6602      2.00000
    314      -0.6602      2.00000
    315      -0.6602      2.00000
    316      -0.6602      2.00000
    317      -0.6581      2.00000
    318      -0.6581      2.00000
    319      -0.6580      2.00000
    320      -0.6580      2.00000
    321      -0.6580      2.00000
    322      -0.6580      2.00000
    323      -0.6580      2.00000
    324      -0.6580      2.00000
    325      -0.5506      2.00000
    326      -0.5506      2.00000
    327      -0.5506      2.00000
    328      -0.5506      2.00000
    329      -0.5074      2.00000
    330      -0.5074      2.00000
    331      -0.5074      2.00000
    332      -0.5074      2.00000
    333      -0.4737      2.00000
    334      -0.4737      2.00000
    335      -0.4737      2.00000
    336      -0.4737      2.00000
    337      -0.4737      2.00000
    338      -0.4737      2.00000
    339      -0.4737      2.00000
    340      -0.4737      2.00000
    341      -0.4369      2.00000
    342      -0.4369      2.00000
    343      -0.4369      2.00000
    344      -0.4369      2.00000
    345      -0.4348      2.00000
    346      -0.4348      2.00000
    347      -0.4348      2.00000
    348      -0.4348      2.00000
    349      -0.4348      2.00000
    350      -0.4348      2.00000
    351      -0.4348      2.00000
    352      -0.4348      2.00000
    353      -0.4282      2.00000
    354      -0.4282      2.00000
    355      -0.4282      2.00000
    356      -0.4282      2.00000
    357      -0.3475      2.00000
    358      -0.3475      2.00000
    359      -0.3475      2.00000
    360      -0.3475      2.00000
    361      -0.2793      2.00000
    362      -0.2793      2.00000
    363      -0.2793      2.00000
    364      -0.2793      2.00000
    365      -0.2793      2.00000
    366      -0.2793      2.00000
    367      -0.2793      2.00000
    368      -0.2793      2.00000
    369      -0.2749      2.00000
    370      -0.2749      2.00000
    371      -0.2749      2.00000
    372      -0.2749      2.00000
    373      -0.2289      2.00000
    374      -0.2289      2.00000
    375      -0.2289      2.00000
    376      -0.2289      2.00000
    377      -0.1697      2.00000
    378      -0.1697      2.00000
    379      -0.1697      2.00000
    380      -0.1696      2.00000
    381      -0.1568      2.00000
    382      -0.1568      2.00000
    383      -0.1568      2.00000
    384      -0.1568      2.00000
    385      -0.1568      2.00000
    386      -0.1568      2.00000
    387      -0.1568      2.00000
    388      -0.1568      2.00000
    389      -0.0870      2.00000
    390      -0.0870      2.00000
    391      -0.0870      2.00000
    392      -0.0870      2.00000
    393       0.0116      2.00000
    394       0.0116      2.00000
    395       0.0116      2.00000
    396       0.0116      2.00000
    397       0.0349      2.00000
    398       0.0349      2.00000
    399       0.0349      2.00000
    400       0.0349      2.00000
    401       0.0349      2.00000
    402       0.0349      2.00000
    403       0.0349      2.00000
    404       0.0349      2.00000
    405       0.0761      2.00000
    406       0.0761      2.00000
    407       0.0761      2.00000
    408       0.0761      2.00000
    409       0.1214      2.00000
    410       0.1214      2.00000
    411       0.1215      2.00000
    412       0.1215      2.00000
    413       0.1215      2.00000
    414       0.1215      2.00000
    415       0.1215      2.00000
    416       0.1215      2.00000
    417       0.7546      2.00000
    418       0.7546      2.00000
    419       0.7546      2.00000
    420       0.7547      2.00000
    421       0.7813      2.00000
    422       0.7813      2.00000
    423       0.7814      2.00000
    424       0.7814      2.00000
    425       0.7814      2.00000
    426       0.7814      2.00000
    427       0.7814      2.00000
    428       0.7814      2.00000
    429       0.7834      2.00000
    430       0.7834      2.00000
    431       0.7835      2.00000
    432       0.7835      2.00000
    433       0.8306      2.00000
    434       0.8306      2.00000
    435       0.8306      2.00000
    436       0.8306      2.00000
    437       0.8358      2.00000
    438       0.8358      2.00000
    439       0.8358      2.00000
    440       0.8358      2.00000
    441       0.8358      2.00000
    442       0.8358      2.00000
    443       0.8358      2.00000
    444       0.8358      2.00000
    445       0.8471      2.00000
    446       0.8471      2.00000
    447       0.8472      2.00000
    448       0.8472      2.00000
    449       0.8736      2.00000
    450       0.8736      2.00000
    451       0.8736      2.00000
    452       0.8736      2.00000
    453       0.9216      2.00000
    454       0.9216      2.00000
    455       0.9216      2.00000
    456       0.9216      2.00000
    457       0.9255      2.00000
    458       0.9255      2.00000
    459       0.9256      2.00000
    460       0.9256      2.00000
    461       0.9256      2.00000
    462       0.9256      2.00000
    463       0.9256      2.00000
    464       0.9256      2.00000
    465       0.9980      2.00000
    466       0.9981      2.00000
    467       0.9981      2.00000
    468       0.9981      2.00000
    469       1.0202      2.00000
    470       1.0202      2.00000
    471       1.0202      2.00000
    472       1.0202      2.00000
    473       1.1142      2.00000
    474       1.1142      2.00000
    475       1.1142      2.00000
    476       1.1142      2.00000
    477       1.1142      2.00000
    478       1.1143      2.00000
    479       1.1143      2.00000
    480       1.1143      2.00000
    481       1.1748      2.00000
    482       1.1748      2.00000
    483       1.1748      2.00000
    484       1.1748      2.00000
    485       1.2554      2.00000
    486       1.2554      2.00000
    487       1.2554      2.00000
    488       1.2554      2.00000
    489       1.4404      2.00000
    490       1.4405      2.00000
    491       1.4405      2.00000
    492       1.4405      2.00000
    493       1.4776      2.00000
    494       1.4776      2.00000
    495       1.4776      2.00000
    496       1.4776      2.00000
    497       1.4792      2.00000
    498       1.4792      2.00000
    499       1.4792      2.00000
    500       1.4792      2.00000
    501       1.5435      2.00000
    502       1.5435      2.00000
    503       1.5435      2.00000
    504       1.5435      2.00000
    505       1.5435      2.00000
    506       1.5435      2.00000
    507       1.5435      2.00000
    508       1.5435      2.00000
    509       1.6097      2.00000
    510       1.6097      2.00000
    511       1.6097      2.00000
    512       1.6097      2.00000
    513       1.6247      2.00000
    514       1.6247      2.00000
    515       1.6247      2.00000
    516       1.6247      2.00000
    517       1.6247      2.00000
    518       1.6247      2.00000
    519       1.6247      2.00000
    520       1.6247      2.00000
    521       1.8288      2.00000
    522       1.8288      2.00000
    523       1.8288      2.00000
    524       1.8288      2.00000
    525       1.8288      2.00000
    526       1.8288      2.00000
    527       1.8288      2.00000
    528       1.8288      2.00000
    529       1.9171      2.00000
    530       1.9171      2.00000
    531       1.9171      2.00000
    532       1.9171      2.00000
    533       2.0339      2.00000
    534       2.0339      2.00000
    535       2.0339      2.00000
    536       2.0339      2.00000
    537       2.0515      2.00000
    538       2.0515      2.00000
    539       2.0515      2.00000
    540       2.0516      2.00000
    541       2.0516      2.00000
    542       2.0516      2.00000
    543       2.0516      2.00000
    544       2.0516      2.00000
    545       2.0594      2.00000
    546       2.0594      2.00000
    547       2.0595      2.00000
    548       2.0595      2.00000
    549       2.3258      2.00000
    550       2.3258      2.00000
    551       2.3258      2.00000
    552       2.3258      2.00000
    553       2.3258      2.00000
    554       2.3258      2.00000
    555       2.3258      2.00000
    556       2.3258      2.00000
    557       2.4631      2.00000
    558       2.4631      2.00000
    559       2.4631      2.00000
    560       2.4631      2.00000
    561       2.4631      2.00000
    562       2.4631      2.00000
    563       2.4631      2.00000
    564       2.4631      2.00000
    565       2.6094      2.00000
    566       2.6094      2.00000
    567       2.6094      2.00000
    568       2.6094      2.00000
    569       2.7010      2.00000
    570       2.7010      2.00000
    571       2.7010      2.00000
    572       2.7010      2.00000
    573       2.9004      2.00000
    574       2.9004      2.00000
    575       2.9004      2.00000
    576       2.9004      2.00000
    577       5.5574      0.00000
    578       5.5574      0.00000
    579       5.5574      0.00000
    580       5.5574      0.00000
    581       5.9735      0.00000
    582       5.9735      0.00000
    583       5.9735      0.00000
    584       5.9735      0.00000
    585       5.9735      0.00000
    586       5.9735      0.00000
    587       5.9735      0.00000
    588       5.9735      0.00000
    589       6.1255      0.00000
    590       6.1255      0.00000
    591       6.1255      0.00000
    592       6.1255      0.00000
    593       6.3414      0.00000
    594       6.3414      0.00000
    595       6.3414      0.00000
    596       6.3414      0.00000
    597       6.3414      0.00000
    598       6.3414      0.00000
    599       6.3414      0.00000
    600       6.3414      0.00000
    601       6.5011      0.00000
    602       6.5011      0.00000
    603       6.5011      0.00000
    604       6.5011      0.00000
    605       6.5635      0.00000
    606       6.5635      0.00000
    607       6.5636      0.00000
    608       6.5636      0.00000
    609       6.8677      0.00000
    610       6.8677      0.00000
    611       6.8677      0.00000
    612       6.8677      0.00000
    613       7.0263      0.00000
    614       7.0263      0.00000
    615       7.0263      0.00000
    616       7.0263      0.00000
    617       7.0466      0.00000
    618       7.0466      0.00000
    619       7.0466      0.00000
    620       7.0466      0.00000
    621       7.4728      0.00000
    622       7.4728      0.00000
    623       7.4728      0.00000
    624       7.4728      0.00000
    625       7.4728      0.00000
    626       7.4728      0.00000
    627       7.4728      0.00000
    628       7.4728      0.00000
    629       7.5248      0.00000
    630       7.5248      0.00000
    631       7.5248      0.00000
    632       7.5248      0.00000
    633       7.5691      0.00000
    634       7.5691      0.00000
    635       7.5691      0.00000
    636       7.5691      0.00000
    637       7.8007      0.00000
    638       7.8007      0.00000
    639       7.8007      0.00000
    640       7.8007      0.00000
    641       8.0554      0.00000
    642       8.0554      0.00000
    643       8.0554      0.00000
    644       8.0554      0.00000
    645       8.0554      0.00000
    646       8.0554      0.00000
    647       8.0554      0.00000
    648       8.0554      0.00000
    649       8.0778      0.00000
    650       8.0778      0.00000
    651       8.0778      0.00000
    652       8.0778      0.00000
    653       8.4623      0.00000
    654       8.4623      0.00000
    655       8.4623      0.00000
    656       8.4623      0.00000
    657       8.4623      0.00000
    658       8.4623      0.00000
    659       8.4623      0.00000
    660       8.4623      0.00000
    661       8.6321      0.00000
    662       8.6321      0.00000
    663       8.6321      0.00000
    664       8.6321      0.00000
    665       8.7336      0.00000
    666       8.7336      0.00000
    667       8.7336      0.00000
    668       8.7336      0.00000
    669       8.7336      0.00000
    670       8.7336      0.00000
    671       8.7336      0.00000
    672       8.7336      0.00000
    673       8.7359      0.00000
    674       8.7359      0.00000
    675       8.7359      0.00000
    676       8.7359      0.00000
    677       8.9241      0.00000
    678       8.9241      0.00000
    679       8.9241      0.00000
    680       8.9241      0.00000
    681       8.9241      0.00000
    682       8.9242      0.00000
    683       8.9242      0.00000
    684       8.9248      0.00000
    685       9.0301      0.00000
    686       9.0303      0.00000
    687       9.0305      0.00000
    688       9.0333      0.00000
    689       9.1884      0.00000
    690       9.1904      0.00000
    691       9.2020      0.00000
    692       9.2578      0.00000

 k-point     6 :       0.5000    0.5000    0.5000
  band No.  band energies     occupation 
      1     -13.6531      2.00000
      2     -13.6531      2.00000
      3     -13.6531      2.00000
      4     -13.6531      2.00000
      5     -13.6531      2.00000
      6     -13.6531      2.00000
      7     -13.6531      2.00000
      8     -13.6531      2.00000
      9     -13.6494      2.00000
     10     -13.6494      2.00000
     11     -13.6494      2.00000
     12     -13.6494      2.00000
     13     -13.6494      2.00000
     14     -13.6494      2.00000
     15     -13.6494      2.00000
     16     -13.6494      2.00000
     17     -13.6483      2.00000
     18     -13.6483      2.00000
     19     -13.6483      2.00000
     20     -13.6483      2.00000
     21     -13.6483      2.00000
     22     -13.6483      2.00000
     23     -13.6483      2.00000
     24     -13.6483      2.00000
     25     -13.6430      2.00000
     26     -13.6430      2.00000
     27     -13.6430      2.00000
     28     -13.6430      2.00000
     29     -13.6430      2.00000
     30     -13.6430      2.00000
     31     -13.6430      2.00000
     32     -13.6430      2.00000
     33     -13.6010      2.00000
     34     -13.6010      2.00000
     35     -13.6010      2.00000
     36     -13.6010      2.00000
     37     -13.6010      2.00000
     38     -13.6010      2.00000
     39     -13.6010      2.00000
     40     -13.6010      2.00000
     41     -13.5622      2.00000
     42     -13.5622      2.00000
     43     -13.5622      2.00000
     44     -13.5622      2.00000
     45     -13.5622      2.00000
     46     -13.5622      2.00000
     47     -13.5622      2.00000
     48     -13.5622      2.00000
     49     -13.4884      2.00000
     50     -13.4884      2.00000
     51     -13.4884      2.00000
     52     -13.4884      2.00000
     53     -13.4884      2.00000
     54     -13.4884      2.00000
     55     -13.4884      2.00000
     56     -13.4884      2.00000
     57     -13.4262      2.00000
     58     -13.4262      2.00000
     59     -13.4262      2.00000
     60     -13.4262      2.00000
     61     -13.4262      2.00000
     62     -13.4262      2.00000
     63     -13.4262      2.00000
     64     -13.4262      2.00000
     65     -13.3779      2.00000
     66     -13.3779      2.00000
     67     -13.3779      2.00000
     68     -13.3779      2.00000
     69     -13.3779      2.00000
     70     -13.3779      2.00000
     71     -13.3779      2.00000
     72     -13.3779      2.00000
     73     -13.3634      2.00000
     74     -13.3634      2.00000
     75     -13.3634      2.00000
     76     -13.3634      2.00000
     77     -13.3634      2.00000
     78     -13.3634      2.00000
     79     -13.3634      2.00000
     80     -13.3634      2.00000
     81     -13.3632      2.00000
     82     -13.3632      2.00000
     83     -13.3632      2.00000
     84     -13.3632      2.00000
     85     -13.3632      2.00000
     86     -13.3632      2.00000
     87     -13.3632      2.00000
     88     -13.3632      2.00000
     89     -13.3564      2.00000
     90     -13.3564      2.00000
     91     -13.3564      2.00000
     92     -13.3564      2.00000
     93     -13.3564      2.00000
     94     -13.3564      2.00000
     95     -13.3564      2.00000
     96     -13.3564      2.00000
     97     -13.2712      2.00000
     98     -13.2712      2.00000
     99     -13.2712      2.00000
    100     -13.2712      2.00000
    101     -13.2712      2.00000
    102     -13.2712      2.00000
    103     -13.2712      2.00000
    104     -13.2712      2.00000
    105     -13.2686      2.00000
    106     -13.2686      2.00000
    107     -13.2686      2.00000
    108     -13.2686      2.00000
    109     -13.2686      2.00000
    110     -13.2686      2.00000
    111     -13.2686      2.00000
    112     -13.2686      2.00000
    113     -13.2661      2.00000
    114     -13.2661      2.00000
    115     -13.2661      2.00000
    116     -13.2661      2.00000
    117     -13.2661      2.00000
    118     -13.2661      2.00000
    119     -13.2661      2.00000
    120     -13.2661      2.00000
    121     -13.2575      2.00000
    122     -13.2575      2.00000
    123     -13.2575      2.00000
    124     -13.2575      2.00000
    125     -13.2575      2.00000
    126     -13.2575      2.00000
    127     -13.2575      2.00000
    128     -13.2575      2.00000
    129     -13.2567      2.00000
    130     -13.2567      2.00000
    131     -13.2567      2.00000
    132     -13.2567      2.00000
    133     -13.2567      2.00000
    134     -13.2567      2.00000
    135     -13.2567      2.00000
    136     -13.2567      2.00000
    137     -13.2465      2.00000
    138     -13.2465      2.00000
    139     -13.2465      2.00000
    140     -13.2465      2.00000
    141     -13.2465      2.00000
    142     -13.2465      2.00000
    143     -13.2465      2.00000
    144     -13.2465      2.00000
    145     -13.2403      2.00000
    146     -13.2403      2.00000
    147     -13.2403      2.00000
    148     -13.2403      2.00000
    149     -13.2403      2.00000
    150     -13.2403      2.00000
    151     -13.2403      2.00000
    152     -13.2403      2.00000
    153     -13.2398      2.00000
    154     -13.2398      2.00000
    155     -13.2398      2.00000
    156     -13.2398      2.00000
    157     -13.2398      2.00000
    158     -13.2398      2.00000
    159     -13.2398      2.00000
    160     -13.2398      2.00000
    161     -11.5862      2.00000
    162     -11.5862      2.00000
    163     -11.5862      2.00000
    164     -11.5862      2.00000
    165     -11.5862      2.00000
    166     -11.5862      2.00000
    167     -11.5862      2.00000
    168     -11.5862      2.00000
    169     -11.2836      2.00000
    170     -11.2836      2.00000
    171     -11.2836      2.00000
    172     -11.2836      2.00000
    173     -11.2836      2.00000
    174     -11.2836      2.00000
    175     -11.2836      2.00000
    176     -11.2836      2.00000
    177     -10.8541      2.00000
    178     -10.8541      2.00000
    179     -10.8541      2.00000
    180     -10.8541      2.00000
    181     -10.8541      2.00000
    182     -10.8541      2.00000
    183     -10.8541      2.00000
    184     -10.8541      2.00000
    185     -10.6085      2.00000
    186     -10.6085      2.00000
    187     -10.6085      2.00000
    188     -10.6085      2.00000
    189     -10.6085      2.00000
    190     -10.6085      2.00000
    191     -10.6085      2.00000
    192     -10.6085      2.00000
    193     -10.5611      2.00000
    194     -10.5611      2.00000
    195     -10.5611      2.00000
    196     -10.5611      2.00000
    197     -10.5611      2.00000
    198     -10.5611      2.00000
    199     -10.5611      2.00000
    200     -10.5611      2.00000
    201     -10.5410      2.00000
    202     -10.5410      2.00000
    203     -10.5410      2.00000
    204     -10.5410      2.00000
    205     -10.5410      2.00000
    206     -10.5410      2.00000
    207     -10.5410      2.00000
    208     -10.5410      2.00000
    209     -10.5404      2.00000
    210     -10.5404      2.00000
    211     -10.5404      2.00000
    212     -10.5404      2.00000
    213     -10.5404      2.00000
    214     -10.5404      2.00000
    215     -10.5404      2.00000
    216     -10.5404      2.00000
    217     -10.4241      2.00000
    218     -10.4241      2.00000
    219     -10.4241      2.00000
    220     -10.4241      2.00000
    221     -10.4241      2.00000
    222     -10.4241      2.00000
    223     -10.4241      2.00000
    224     -10.4241      2.00000
    225      -3.6935      2.00000
    226      -3.6935      2.00000
    227      -3.6935      2.00000
    228      -3.6935      2.00000
    229      -3.6935      2.00000
    230      -3.6935      2.00000
    231      -3.6935      2.00000
    232      -3.6935      2.00000
    233      -3.4500      2.00000
    234      -3.4500      2.00000
    235      -3.4500      2.00000
    236      -3.4500      2.00000
    237      -3.4500      2.00000
    238      -3.4500      2.00000
    239      -3.4500      2.00000
    240      -3.4500      2.00000
    241      -3.1498      2.00000
    242      -3.1498      2.00000
    243      -3.1498      2.00000
    244      -3.1498      2.00000
    245      -3.1498      2.00000
    246      -3.1498      2.00000
    247      -3.1498      2.00000
    248      -3.1498      2.00000
    249      -3.0676      2.00000
    250      -3.0676      2.00000
    251      -3.0676      2.00000
    252      -3.0676      2.00000
    253      -3.0676      2.00000
    254      -3.0676      2.00000
    255      -3.0676      2.00000
    256      -3.0676      2.00000
    257      -1.9710      2.00000
    258      -1.9710      2.00000
    259      -1.9710      2.00000
    260      -1.9710      2.00000
    261      -1.9710      2.00000
    262      -1.9710      2.00000
    263      -1.9710      2.00000
    264      -1.9710      2.00000
    265      -1.8965      2.00000
    266      -1.8965      2.00000
    267      -1.8965      2.00000
    268      -1.8965      2.00000
    269      -1.8965      2.00000
    270      -1.8965      2.00000
    271      -1.8965      2.00000
    272      -1.8965      2.00000
    273      -1.5437      2.00000
    274      -1.5437      2.00000
    275      -1.5437      2.00000
    276      -1.5437      2.00000
    277      -1.5437      2.00000
    278      -1.5437      2.00000
    279      -1.5437      2.00000
    280      -1.5437      2.00000
    281      -1.3438      2.00000
    282      -1.3438      2.00000
    283      -1.3438      2.00000
    284      -1.3438      2.00000
    285      -1.3438      2.00000
    286      -1.3438      2.00000
    287      -1.3438      2.00000
    288      -1.3438      2.00000
    289      -1.1554      2.00000
    290      -1.1554      2.00000
    291      -1.1554      2.00000
    292      -1.1554      2.00000
    293      -1.1554      2.00000
    294      -1.1554      2.00000
    295      -1.1554      2.00000
    296      -1.1554      2.00000
    297      -0.8196      2.00000
    298      -0.8196      2.00000
    299      -0.8196      2.00000
    300      -0.8196      2.00000
    301      -0.8196      2.00000
    302      -0.8196      2.00000
    303      -0.8196      2.00000
    304      -0.8196      2.00000
    305      -0.7831      2.00000
    306      -0.7831      2.00000
    307      -0.7831      2.00000
    308      -0.7831      2.00000
    309      -0.7831      2.00000
    310      -0.7831      2.00000
    311      -0.7831      2.00000
    312      -0.7831      2.00000
    313      -0.7099      2.00000
    314      -0.7099      2.00000
    315      -0.7099      2.00000
    316      -0.7099      2.00000
    317      -0.7099      2.00000
    318      -0.7099      2.00000
    319      -0.7099      2.00000
    320      -0.7099      2.00000
    321      -0.6953      2.00000
    322      -0.6953      2.00000
    323      -0.6953      2.00000
    324      -0.6953      2.00000
    325      -0.6953      2.00000
    326      -0.6953      2.00000
    327      -0.6953      2.00000
    328      -0.6953      2.00000
    329      -0.5572      2.00000
    330      -0.5572      2.00000
    331      -0.5572      2.00000
    332      -0.5572      2.00000
    333      -0.5572      2.00000
    334      -0.5571      2.00000
    335      -0.5571      2.00000
    336      -0.5571      2.00000
    337      -0.4124      2.00000
    338      -0.4124      2.00000
    339      -0.4124      2.00000
    340      -0.4124      2.00000
    341      -0.4124      2.00000
    342      -0.4124      2.00000
    343      -0.4124      2.00000
    344      -0.4124      2.00000
    345      -0.4045      2.00000
    346      -0.4045      2.00000
    347      -0.4045      2.00000
    348      -0.4045      2.00000
    349      -0.4045      2.00000
    350      -0.4045      2.00000
    351      -0.4044      2.00000
    352      -0.4044      2.00000
    353      -0.3714      2.00000
    354      -0.3714      2.00000
    355      -0.3714      2.00000
    356      -0.3714      2.00000
    357      -0.3714      2.00000
    358      -0.3714      2.00000
    359      -0.3714      2.00000
    360      -0.3714      2.00000
    361      -0.3259      2.00000
    362      -0.3259      2.00000
    363      -0.3259      2.00000
    364      -0.3259      2.00000
    365      -0.3259      2.00000
    366      -0.3259      2.00000
    367      -0.3259      2.00000
    368      -0.3259      2.00000
    369      -0.2161      2.00000
    370      -0.2161      2.00000
    371      -0.2161      2.00000
    372      -0.2161      2.00000
    373      -0.2161      2.00000
    374      -0.2160      2.00000
    375      -0.2160      2.00000
    376      -0.2160      2.00000
    377      -0.2043      2.00000
    378      -0.2043      2.00000
    379      -0.2043      2.00000
    380      -0.2043      2.00000
    381      -0.2043      2.00000
    382      -0.2043      2.00000
    383      -0.2043      2.00000
    384      -0.2043      2.00000
    385      -0.0485      2.00000
    386      -0.0485      2.00000
    387      -0.0485      2.00000
    388      -0.0484      2.00000
    389      -0.0484      2.00000
    390      -0.0484      2.00000
    391      -0.0484      2.00000
    392      -0.0484      2.00000
    393      -0.0283      2.00000
    394      -0.0283      2.00000
    395      -0.0283      2.00000
    396      -0.0283      2.00000
    397      -0.0283      2.00000
    398      -0.0283      2.00000
    399      -0.0283      2.00000
    400      -0.0283      2.00000
    401      -0.0215      2.00000
    402      -0.0215      2.00000
    403      -0.0215      2.00000
    404      -0.0215      2.00000
    405      -0.0215      2.00000
    406      -0.0215      2.00000
    407      -0.0215      2.00000
    408      -0.0215      2.00000
    409       0.1593      2.00000
    410       0.1593      2.00000
    411       0.1593      2.00000
    412       0.1593      2.00000
    413       0.1593      2.00000
    414       0.1593      2.00000
    415       0.1593      2.00000
    416       0.1593      2.00000
    417       0.7506      2.00000
    418       0.7506      2.00000
    419       0.7506      2.00000
    420       0.7506      2.00000
    421       0.7506      2.00000
    422       0.7507      2.00000
    423       0.7507      2.00000
    424       0.7507      2.00000
    425       0.8033      2.00000
    426       0.8033      2.00000
    427       0.8033      2.00000
    428       0.8033      2.00000
    429       0.8033      2.00000
    430       0.8033      2.00000
    431       0.8033      2.00000
    432       0.8033      2.00000
    433       0.8096      2.00000
    434       0.8096      2.00000
    435       0.8096      2.00000
    436       0.8096      2.00000
    437       0.8096      2.00000
    438       0.8096      2.00000
    439       0.8096      2.00000
    440       0.8096      2.00000
    441       0.9014      2.00000
    442       0.9014      2.00000
    443       0.9014      2.00000
    444       0.9014      2.00000
    445       0.9014      2.00000
    446       0.9015      2.00000
    447       0.9015      2.00000
    448       0.9015      2.00000
    449       0.9931      2.00000
    450       0.9932      2.00000
    451       0.9932      2.00000
    452       0.9932      2.00000
    453       0.9932      2.00000
    454       0.9932      2.00000
    455       0.9932      2.00000
    456       0.9932      2.00000
    457       1.0070      2.00000
    458       1.0070      2.00000
    459       1.0070      2.00000
    460       1.0070      2.00000
    461       1.0070      2.00000
    462       1.0071      2.00000
    463       1.0071      2.00000
    464       1.0071      2.00000
    465       1.0141      2.00000
    466       1.0141      2.00000
    467       1.0141      2.00000
    468       1.0141      2.00000
    469       1.0141      2.00000
    470       1.0141      2.00000
    471       1.0141      2.00000
    472       1.0141      2.00000
    473       1.0231      2.00000
    474       1.0231      2.00000
    475       1.0231      2.00000
    476       1.0232      2.00000
    477       1.0232      2.00000
    478       1.0232      2.00000
    479       1.0232      2.00000
    480       1.0232      2.00000
    481       1.2788      2.00000
    482       1.2788      2.00000
    483       1.2788      2.00000
    484       1.2788      2.00000
    485       1.2788      2.00000
    486       1.2788      2.00000
    487       1.2788      2.00000
    488       1.2788      2.00000
    489       1.2901      2.00000
    490       1.2901      2.00000
    491       1.2901      2.00000
    492       1.2901      2.00000
    493       1.2901      2.00000
    494       1.2901      2.00000
    495       1.2901      2.00000
    496       1.2901      2.00000
    497       1.4725      2.00000
    498       1.4725      2.00000
    499       1.4725      2.00000
    500       1.4725      2.00000
    501       1.4725      2.00000
    502       1.4726      2.00000
    503       1.4726      2.00000
    504       1.4726      2.00000
    505       1.5015      2.00000
    506       1.5015      2.00000
    507       1.5015      2.00000
    508       1.5015      2.00000
    509       1.5015      2.00000
    510       1.5015      2.00000
    511       1.5015      2.00000
    512       1.5016      2.00000
    513       1.6110      2.00000
    514       1.6110      2.00000
    515       1.6111      2.00000
    516       1.6111      2.00000
    517       1.6111      2.00000
    518       1.6111      2.00000
    519       1.6111      2.00000
    520       1.6111      2.00000
    521       1.7871      2.00000
    522       1.7871      2.00000
    523       1.7871      2.00000
    524       1.7872      2.00000
    525       1.7872      2.00000
    526       1.7872      2.00000
    527       1.7872      2.00000
    528       1.7872      2.00000
    529       1.8763      2.00000
    530       1.8763      2.00000
    531       1.8763      2.00000
    532       1.8763      2.00000
    533       1.8763      2.00000
    534       1.8763      2.00000
    535       1.8763      2.00000
    536       1.8763      2.00000
    537       1.9367      2.00000
    538       1.9367      2.00000
    539       1.9368      2.00000
    540       1.9368      2.00000
    541       1.9368      2.00000
    542       1.9368      2.00000
    543       1.9368      2.00000
    544       1.9368      2.00000
    545       2.4421      2.00000
    546       2.4421      2.00000
    547       2.4421      2.00000
    548       2.4421      2.00000
    549       2.4422      2.00000
    550       2.4422      2.00000
    551       2.4422      2.00000
    552       2.4422      2.00000
    553       2.5191      2.00000
    554       2.5191      2.00000
    555       2.5191      2.00000
    556       2.5191      2.00000
    557       2.5191      2.00000
    558       2.5191      2.00000
    559       2.5191      2.00000
    560       2.5191      2.00000
    561       2.5539      2.00000
    562       2.5539      2.00000
    563       2.5539      2.00000
    564       2.5539      2.00000
    565       2.5539      2.00000
    566       2.5540      2.00000
    567       2.5540      2.00000
    568       2.5540      2.00000
    569       2.8738      2.00000
    570       2.8738      2.00000
    571       2.8738      2.00000
    572       2.8738      2.00000
    573       2.8738      2.00000
    574       2.8738      2.00000
    575       2.8738      2.00000
    576       2.8738      2.00000
    577       5.6574      0.00000
    578       5.6574      0.00000
    579       5.6574      0.00000
    580       5.6574      0.00000
    581       5.6574      0.00000
    582       5.6574      0.00000
    583       5.6574      0.00000
    584       5.6574      0.00000
    585       5.7817      0.00000
    586       5.7817      0.00000
    587       5.7817      0.00000
    588       5.7817      0.00000
    589       5.7817      0.00000
    590       5.7817      0.00000
    591       5.7817      0.00000
    592       5.7817      0.00000
    593       6.3937      0.00000
    594       6.3937      0.00000
    595       6.3937      0.00000
    596       6.3937      0.00000
    597       6.3937      0.00000
    598       6.3937      0.00000
    599       6.3937      0.00000
    600       6.3937      0.00000
    601       6.5113      0.00000
    602       6.5113      0.00000
    603       6.5113      0.00000
    604       6.5113      0.00000
    605       6.5113      0.00000
    606       6.5113      0.00000
    607       6.5113      0.00000
    608       6.5113      0.00000
    609       7.0339      0.00000
    610       7.0340      0.00000
    611       7.0340      0.00000
    612       7.0340      0.00000
    613       7.0340      0.00000
    614       7.0340      0.00000
    615       7.0340      0.00000
    616       7.0340      0.00000
    617       7.2631      0.00000
    618       7.2631      0.00000
    619       7.2631      0.00000
    620       7.2631      0.00000
    621       7.2631      0.00000
    622       7.2631      0.00000
    623       7.2631      0.00000
    624       7.2631      0.00000
    625       7.3076      0.00000
    626       7.3076      0.00000
    627       7.3076      0.00000
    628       7.3076      0.00000
    629       7.3076      0.00000
    630       7.3076      0.00000
    631       7.3076      0.00000
    632       7.3076      0.00000
    633       7.3843      0.00000
    634       7.3843      0.00000
    635       7.3843      0.00000
    636       7.3843      0.00000
    637       7.3843      0.00000
    638       7.3843      0.00000
    639       7.3843      0.00000
    640       7.3843      0.00000
    641       8.0675      0.00000
    642       8.0675      0.00000
    643       8.0675      0.00000
    644       8.0675      0.00000
    645       8.0675      0.00000
    646       8.0675      0.00000
    647       8.0675      0.00000
    648       8.0675      0.00000
    649       8.3903      0.00000
    650       8.3903      0.00000
    651       8.3903      0.00000
    652       8.3903      0.00000
    653       8.3903      0.00000
    654       8.3903      0.00000
    655       8.3903      0.00000
    656       8.3903      0.00000
    657       8.4852      0.00000
    658       8.4852      0.00000
    659       8.4852      0.00000
    660       8.4852      0.00000
    661       8.4852      0.00000
    662       8.4852      0.00000
    663       8.4852      0.00000
    664       8.4852      0.00000
    665       8.7937      0.00000
    666       8.7937      0.00000
    667       8.7937      0.00000
    668       8.7937      0.00000
    669       8.7937      0.00000
    670       8.7937      0.00000
    671       8.7937      0.00000
    672       8.7937      0.00000
    673       9.2332      0.00000
    674       9.2333      0.00000
    675       9.2335      0.00000
    676       9.2341      0.00000
    677       9.2355      0.00000
    678       9.2364      0.00000
    679       9.2382      0.00000
    680       9.2413      0.00000
    681       9.2696      0.00000
    682       9.2697      0.00000
    683       9.2703      0.00000
    684       9.2708      0.00000
    685       9.2725      0.00000
    686       9.2778      0.00000
    687       9.2791      0.00000
    688       9.3044      0.00000
    689       9.3445      0.00000
    690       9.3459      0.00000
    691       9.3504      0.00000
    692       9.3656      0.00000


--------------------------------------------------------------------------------------------------------


 soft charge-density along one line, spin component            1
         0         1         2         3         4         5         6         7         8         9
 total charge-density along one line
 
 pseudopotential strength for first ion, spin component:            1
 -2.111   0.000   0.000   0.000  -0.002  -2.311  -0.000  -0.000
  0.000  -2.120   0.000  -0.000  -0.000  -0.000  -2.307  -0.000
  0.000   0.000  -2.121   0.000  -0.000  -0.000  -0.000  -2.306
  0.000  -0.000   0.000  -2.120   0.000  -0.000   0.000  -0.000
 -0.002  -0.000  -0.000   0.000  -2.108   0.001   0.000   0.000
 -2.311  -0.000  -0.000  -0.000   0.001   2.653   0.000   0.000
 -0.000  -2.307  -0.000   0.000   0.000   0.000   2.652   0.000
 -0.000  -0.000  -2.306  -0.000   0.000   0.000   0.000   2.651
 -0.000   0.000  -0.000  -2.307  -0.000   0.000  -0.000   0.000
  0.001   0.000   0.000  -0.000  -2.312  -0.000  -0.000  -0.000
 -0.000  -0.000   0.001  -0.000   0.000   0.000   0.000  -0.000
 -0.000   0.000  -0.000   0.000  -0.000   0.000  -0.000   0.000
 -0.000   0.000   0.000   0.006   0.000  -0.000  -0.000  -0.000
  0.006  -0.000   0.000  -0.000  -0.000  -0.001   0.000  -0.000
 -0.000   0.006   0.000  -0.000  -0.000   0.000  -0.001   0.000
  0.000   0.000  -0.000   0.000  -0.000  -0.000  -0.000   0.000
  0.000   0.000  -0.000   0.000  -0.000  -0.000  -0.000   0.000
  0.000   0.000  -0.000  -0.000   0.000  -0.000  -0.000   0.000
 total augmentation occupancy for first ion, spin component:            1
  1.965   0.000   0.000  -0.000  -0.002  -0.012   0.000  -0.000  -0.000   0.007   0.000  -0.000  -0.000  -0.037   0.000  -0.000
  0.000   1.966  -0.000   0.000  -0.000   0.000  -0.009  -0.000   0.000   0.000   0.000   0.000  -0.004   0.000  -0.035   0.000
  0.000  -0.000   1.965  -0.000   0.000  -0.000  -0.000  -0.017  -0.000  -0.000   0.002  -0.002   0.000   0.000   0.000   0.000
 -0.000   0.000  -0.000   1.966   0.000  -0.000  -0.000  -0.000  -0.009   0.000   0.000  -0.000  -0.035   0.000   0.004  -0.009
 -0.002  -0.000   0.000   0.000   1.966   0.007   0.000   0.000   0.000  -0.024  -0.000  -0.000  -0.000   0.001  -0.000  -0.000
 -0.012   0.000  -0.000  -0.000   0.007   0.101   0.000   0.000   0.000   0.000  -0.000  -0.000   0.000   0.100  -0.000   0.000
  0.000  -0.009  -0.000  -0.000   0.000   0.000   0.106  -0.000   0.000   0.000  -0.000   0.000  -0.001   0.000   0.099   0.000
 -0.000  -0.000  -0.017  -0.000   0.000   0.000  -0.000   0.023   0.000   0.000   0.005  -0.005  -0.000   0.000  -0.000   0.000
 -0.000   0.000  -0.000  -0.009   0.000   0.000   0.000   0.000   0.106  -0.000  -0.000  -0.000   0.099   0.000   0.001  -0.012
  0.007   0.000  -0.000   0.000  -0.024   0.000   0.000   0.000  -0.000   0.025   0.000   0.000  -0.000   0.002   0.000   0.000
  0.000   0.000   0.002   0.000  -0.000  -0.000  -0.000   0.005  -0.000   0.000   0.777  -0.475  -0.000  -0.000   0.000  -0.000
 -0.000   0.000  -0.002  -0.000  -0.000  -0.000   0.000  -0.005  -0.000   0.000  -0.475   0.333  -0.000  -0.000  -0.000   0.000
 -0.000  -0.004   0.000  -0.035  -0.000   0.000  -0.001  -0.000   0.099  -0.000  -0.000  -0.000   0.141   0.000  -0.000  -0.017
 -0.037   0.000   0.000   0.000   0.001   0.100   0.000   0.000   0.000   0.002  -0.000  -0.000   0.000   0.144  -0.000   0.000
  0.000  -0.035   0.000   0.004  -0.000  -0.000   0.099  -0.000   0.001   0.000   0.000  -0.000  -0.000  -0.000   0.141   0.000
 -0.000   0.000   0.000  -0.009  -0.000   0.000   0.000   0.000  -0.012   0.000  -0.000   0.000  -0.017   0.000   0.000   0.003
 -0.009   0.000   0.000   0.000  -0.000  -0.012  -0.000  -0.000   0.000  -0.001   0.000   0.000  -0.000  -0.018  -0.000  -0.000
 -0.000  -0.009   0.000  -0.000   0.000  -0.000  -0.012   0.000  -0.000  -0.000  -0.000   0.000  -0.000   0.000  -0.017   0.000


------------------------ aborting loop because EDIFF is reached ----------------------------------------


    CHARGE:  cpu time      0.6984: real time      0.7001
    FORLOC:  cpu time      0.0227: real time      0.0228
    FORHF :  cpu time     82.0057: real time     83.3892
    FORNL :  cpu time      9.3593: real time      9.3830
    FORCOR:  cpu time      6.3367: real time      6.3524
    FORHAR:  cpu time      0.0222: real time      0.0223
    MIXING:  cpu time      0.0215: real time      0.0216
    OFIELD:  cpu time      0.0000: real time      0.0000

 VOLUME and BASIS-vectors are now :
 -----------------------------------------------------------------------------
  energy-cutoff  :      600.00
  volume of cell :     3108.01
      direct lattice vectors                 reciprocal lattice vectors
    11.564800263  0.000000000  0.000000000     0.086469284  0.000000000  0.000000000
     0.000000000 11.564800263  0.000000000     0.000000000  0.086469284  0.000000000
     0.000000000  0.000000000 23.238399506     0.000000000  0.000000000  0.043032223

  length of vectors
    11.564800263 11.564800263 23.238399506     0.086469284  0.086469284  0.043032223


 FORCES acting on ions
    electron-ion (+dipol)            ewald-force                    non-local-force                 convergence-correction
 -----------------------------------------------------------------------------------------------
   0.109E-04 -.816E-04 0.722E-04   0.588E-06 0.514E-05 0.465E-05   0.502E-22 0.136E-21 0.508E-19   -.905E-05 0.842E-04 -.907E-04
   -.464E-05 0.123E-05 -.149E-03   0.588E-06 0.514E-05 0.465E-05   0.504E-22 0.192E-21 0.119E-19   0.955E-05 0.177E-05 0.159E-03
   -.385E-05 0.726E-04 0.753E-04   0.702E-06 0.397E-05 0.554E-05   0.224E-22 -.662E-23 0.678E-20   -.158E-04 -.745E-04 -.102E-03
   0.343E-04 -.205E-04 -.141E-03   0.702E-06 0.397E-05 0.554E-05   0.244E-21 0.174E-22 -.220E-19   -.396E-04 0.174E-04 0.147E-03
   -.939E-05 0.660E-05 0.119E-03   -.193E-05 0.352E-06 -.110E-05   -.932E-22 0.213E-21 -.169E-19   0.161E-04 -.122E-05 -.137E-03
   0.201E-05 0.165E-04 -.198E-03   -.193E-05 0.352E-06 -.110E-05   0.296E-22 0.596E-22 -.356E-19   -.283E-05 -.928E-05 0.216E-03
   -.673E-05 -.170E-04 0.128E-03   -.182E-05 -.815E-06 -.209E-06   -.577E-22 0.662E-22 0.102E-19   0.571E-05 0.185E-04 -.149E-03
   -.426E-04 -.104E-04 -.201E-03   -.182E-05 -.815E-06 -.209E-06   0.329E-22 0.116E-21 0.186E-19   0.555E-04 0.141E-04 0.225E-03
   0.107E-04 -.397E-05 0.215E-04   0.524E-05 -.390E-05 -.323E-13   -.178E-21 -.126E-21 0.796E-19   -.161E-04 0.310E-05 -.272E-04
   0.191E-04 -.120E-04 -.406E-04   0.524E-05 -.390E-05 -.479E-13   -.784E-22 -.122E-21 0.254E-19   -.276E-04 0.111E-04 0.511E-04
   0.152E-04 0.533E-05 0.483E-04   0.457E-06 -.642E-05 -.575E-05   -.826E-22 0.265E-22 0.847E-20   -.125E-04 -.139E-05 -.451E-04
   0.218E-04 0.215E-04 -.357E-04   0.457E-06 -.642E-05 -.575E-05   0.140E-21 0.265E-22 0.373E-19   -.223E-04 -.335E-05 0.484E-04
   -.596E-05 -.291E-06 -.782E-05   0.272E-05 0.888E-06 0.575E-05   0.106E-21 0.212E-21 0.169E-19   0.129E-05 -.293E-05 -.540E-05
   -.322E-04 -.190E-04 -.210E-04   0.272E-05 0.888E-06 0.575E-05   0.122E-21 0.794E-22 -.119E-19   0.259E-04 0.116E-04 0.219E-04
   0.775E-05 -.103E-04 0.169E-04   -.206E-05 -.163E-05 -.485E-13   0.135E-22 0.251E-21 -.661E-19   -.981E-05 0.399E-05 -.209E-04
   -.125E-05 0.124E-04 -.432E-04   -.206E-05 -.163E-05 -.110E-13   0.139E-22 -.291E-21 -.169E-20   0.806E-05 -.113E-04 0.520E-04
   0.471E-04 -.156E-05 0.123E-03   -.400E-05 0.757E-06 -.465E-05   0.211E-22 -.860E-22 -.271E-19   -.484E-04 -.848E-05 -.117E-03
   -.587E-04 -.267E-04 -.363E-04   -.400E-05 0.757E-06 -.465E-05   -.502E-23 0.662E-23 -.136E-19   0.581E-04 0.197E-04 0.521E-04
   0.544E-04 0.114E-04 0.164E-03   0.783E-06 -.176E-05 0.110E-05   0.101E-21 0.165E-21 -.356E-19   -.584E-04 0.205E-05 -.175E-03
   0.249E-04 0.570E-05 -.941E-04   0.783E-06 -.176E-05 0.110E-05   0.561E-22 0.185E-21 0.305E-19   -.313E-04 -.205E-05 0.976E-04
   -.534E-04 -.220E-04 0.111E-03   -.517E-05 0.643E-06 -.554E-05   -.943E-22 0.397E-22 -.559E-19   0.573E-04 0.224E-04 -.114E-03
   0.550E-04 -.113E-04 -.540E-04   -.517E-05 0.643E-06 -.554E-05   0.493E-22 -.199E-21 -.339E-20   -.460E-04 0.161E-04 0.657E-04
   -.733E-04 0.257E-04 0.172E-03   -.383E-06 -.187E-05 0.209E-06   -.630E-22 0.112E-21 -.254E-19   0.791E-04 -.207E-04 -.179E-03
   -.451E-04 -.183E-05 -.910E-04   -.383E-06 -.187E-05 0.209E-06   0.149E-21 0.106E-21 0.999E-19   0.439E-04 0.593E-05 0.982E-04
   -.214E-05 -.778E-05 0.201E-03   0.652E-06 0.483E-06 0.143E-13   -.624E-22 0.000E+00 0.491E-19   -.324E-06 0.110E-04 -.220E-03
   0.341E-04 -.298E-04 -.193E-03   0.652E-06 0.483E-06 0.219E-12   -.327E-22 0.000E+00 -.254E-19   -.456E-04 0.343E-04 0.205E-03
   -.289E-05 -.295E-05 0.208E-03   0.538E-06 -.683E-06 -.887E-06   -.787E-22 0.827E-22 0.457E-19   -.620E-05 -.515E-05 -.219E-03
   0.362E-04 0.231E-04 -.197E-03   0.538E-06 -.683E-06 -.887E-06   0.277E-22 -.152E-21 -.169E-19   -.474E-04 -.241E-04 0.214E-03
   0.557E-05 -.141E-04 0.192E-03   -.515E-06 0.597E-06 0.887E-06   -.413E-22 0.278E-21 0.000E+00   -.129E-05 0.149E-04 -.215E-03
   -.295E-04 -.296E-04 -.184E-03   -.515E-06 0.597E-06 0.887E-06   0.155E-23 0.157E-21 -.390E-19   0.248E-04 0.304E-04 0.198E-03
   -.339E-05 -.111E-04 0.196E-03   -.628E-06 -.570E-06 0.485E-14   -.980E-22 0.132E-21 0.288E-19   0.413E-05 -.329E-06 -.219E-03
   -.285E-04 0.257E-04 -.173E-03   -.628E-06 -.570E-06 0.112E-12   -.186E-21 0.562E-22 -.186E-19   0.328E-04 -.327E-04 0.190E-03
   0.129E-04 0.278E-04 0.126E-03   -.414E-05 -.121E-06 0.509E-05   0.168E-23 0.258E-21 -.271E-18   -.244E-04 -.235E-04 -.105E-03
   0.332E-04 -.107E-03 -.747E-04   -.414E-05 -.121E-06 0.509E-05   0.102E-21 0.357E-21 0.291E-18   -.315E-04 0.110E-03 0.635E-04
   0.327E-04 -.283E-04 0.147E-03   0.109E-05 -.212E-05 -.136E-05   0.240E-22 -.284E-21 -.813E-19   -.310E-04 0.226E-04 -.120E-03
   -.289E-04 0.113E-03 -.598E-04   0.109E-05 -.212E-05 -.136E-05   0.501E-22 0.149E-21 0.197E-18   0.221E-04 -.123E-03 0.679E-04
   -.518E-04 0.143E-04 0.188E-03   -.566E-05 -.247E-06 0.605E-05   -.110E-21 0.311E-21 -.312E-18   0.456E-04 -.220E-04 -.207E-03
   0.872E-05 0.685E-06 -.135E-03   -.566E-05 -.247E-06 0.605E-05   0.330E-21 -.245E-21 0.427E-18   -.111E-04 0.223E-05 0.121E-03
   0.164E-04 -.416E-04 0.196E-03   -.436E-06 -.225E-05 -.398E-06   0.276E-21 0.437E-21 -.163E-18   -.158E-04 0.279E-04 -.208E-03
   0.104E-04 0.187E-05 -.167E-03   -.436E-06 -.225E-05 -.398E-06   0.209E-21 0.238E-21 -.881E-19   -.356E-05 -.674E-05 0.139E-03
   0.160E-04 -.142E-04 0.179E-03   0.872E-06 0.681E-06 -.152E-12   0.170E-21 -.251E-21 0.298E-18   -.195E-04 -.201E-05 -.186E-03
   0.168E-04 -.337E-04 -.162E-03   0.872E-06 0.681E-06 0.884E-13   -.974E-22 0.190E-21 0.278E-18   -.880E-05 0.805E-05 0.171E-03
   0.174E-04 0.123E-04 0.242E-03   0.747E-06 -.846E-06 0.965E-06   -.172E-21 0.202E-21 0.000E+00   -.213E-04 -.149E-04 -.262E-03
   0.432E-05 0.160E-04 -.266E-03   0.747E-06 -.846E-06 0.965E-06   -.166E-21 -.377E-21 -.251E-18   -.384E-05 -.153E-04 0.234E-03
   -.169E-04 -.633E-06 0.311E-03   -.655E-06 0.807E-06 -.965E-06   0.200E-21 0.324E-21 0.169E-18   0.141E-04 0.255E-05 -.282E-03
   0.376E-05 -.173E-04 -.240E-03   -.655E-06 0.807E-06 -.965E-06   -.624E-24 -.291E-21 -.251E-18   0.422E-05 0.104E-04 0.265E-03
   -.558E-05 0.116E-04 0.260E-03   -.780E-06 -.721E-06 -.116E-12   0.389E-22 -.251E-21 0.610E-19   0.145E-04 -.191E-04 -.248E-03
   -.313E-05 0.293E-04 -.242E-03   -.780E-06 -.721E-06 0.253E-13   -.324E-21 0.529E-21 0.203E-19   0.913E-05 -.256E-04 0.232E-03
   -.873E-04 -.393E-04 0.124E-03   -.312E-06 0.569E-05 -.509E-05   0.219E-22 0.516E-21 0.542E-19   0.914E-04 0.347E-04 -.120E-03
   0.998E-04 -.389E-04 -.185E-03   -.312E-06 0.569E-05 -.509E-05   0.247E-21 0.106E-21 -.400E-18   -.102E-03 0.236E-04 0.183E-03
   0.268E-04 0.744E-05 0.181E-03   -.187E-06 0.416E-05 -.605E-05   0.218E-21 0.417E-21 -.678E-20   -.214E-04 -.680E-05 -.177E-03
   0.848E-04 0.738E-04 -.218E-03   -.187E-06 0.416E-05 -.605E-05   0.308E-21 0.238E-21 0.224E-18   -.906E-04 -.562E-04 0.251E-03
   0.846E-04 0.247E-04 0.112E-03   -.231E-05 0.462E-06 0.136E-05   0.799E-22 0.318E-21 0.122E-18   -.947E-04 -.242E-04 -.136E-03
   -.100E-03 -.165E-04 -.179E-03   -.231E-05 0.462E-06 0.136E-05   -.939E-22 -.159E-21 -.176E-18   0.968E-04 -.241E-05 0.160E-03
   -.183E-04 -.117E-04 0.177E-03   -.219E-05 -.106E-05 0.398E-06   0.318E-21 0.199E-22 0.407E-18   0.188E-04 -.342E-05 -.164E-03
   -.840E-04 -.371E-04 -.215E-03   -.219E-05 -.106E-05 0.398E-06   0.176E-21 0.318E-21 0.183E-18   0.827E-04 0.356E-04 0.241E-03
   -.422E-04 -.527E-04 -.177E-04   0.470E-05 -.513E-05 -.109E-13   -.215E-21 0.993E-22 0.203E-18   0.632E-04 0.564E-04 0.750E-05
   0.127E-03 0.413E-04 -.585E-04   0.470E-05 -.513E-05 0.684E-14   -.882E-22 -.122E-21 -.678E-20   -.117E-03 -.416E-04 0.655E-04
   -.424E-04 0.796E-04 0.732E-04   -.531E-06 -.713E-05 0.645E-05   0.140E-21 -.159E-21 -.176E-18   0.440E-04 -.906E-04 -.772E-04
   0.115E-03 -.499E-04 -.174E-04   -.531E-06 -.713E-05 0.645E-05   0.916E-22 -.119E-21 -.610E-19   -.106E-03 0.422E-04 0.294E-04
   0.289E-04 -.479E-04 0.714E-04   0.269E-05 0.977E-07 -.645E-05   -.170E-21 -.119E-21 0.115E-18   -.307E-04 0.660E-04 -.694E-04
   -.112E-03 0.648E-04 -.141E-04   0.269E-05 0.977E-07 -.645E-05   0.855E-22 0.794E-22 -.183E-18   0.113E-03 -.587E-04 0.313E-04
   0.499E-04 0.578E-04 -.323E-04   -.253E-05 -.190E-05 -.408E-13   0.135E-21 0.357E-21 -.210E-18   -.544E-04 -.639E-04 0.207E-04
   -.129E-03 -.435E-04 -.675E-04   -.253E-05 -.190E-05 0.144E-13   -.325E-21 0.251E-21 0.203E-19   0.122E-03 0.417E-04 0.752E-04
   0.142E-04 -.735E+01 0.828E-04   -.479E-06 0.950E+01 -.876E-06   0.570E-21 -.141E+01 0.476E-21   -.333E-04 -.380E-04 -.687E-04
   0.806E-04 -.735E+01 -.177E-03   -.479E-06 0.950E+01 -.876E-06   -.632E-21 -.141E+01 -.321E-21   -.131E-03 -.227E-04 0.234E-03
   0.446E-04 -.735E+01 0.538E-04   -.479E-06 0.950E+01 -.876E-06   0.478E-21 -.141E+01 -.110E-20   -.722E-04 0.203E-04 -.177E-04
   0.661E-04 -.735E+01 -.159E-03   -.479E-06 0.950E+01 -.876E-06   0.359E-22 -.141E+01 -.106E-21   -.107E-03 -.926E-04 0.185E-03
   0.707E-04 -.735E+01 0.298E-04   -.428E-06 0.950E+01 0.963E-06   0.257E-21 -.141E+01 -.357E-21   -.115E-03 0.855E-05 -.587E-07
   0.307E-04 -.735E+01 -.132E-03   -.428E-06 0.950E+01 0.963E-06   -.469E-21 -.141E+01 0.132E-22   -.654E-04 -.580E-04 0.160E-03
   0.236E-04 -.735E+01 0.583E-04   -.428E-06 0.950E+01 0.963E-06   0.413E-21 -.141E+01 -.238E-21   -.413E-04 -.508E-04 -.336E-04
   0.648E-04 -.735E+01 -.160E-03   -.428E-06 0.950E+01 0.963E-06   0.180E-21 -.141E+01 0.151E-21   -.120E-03 -.540E-04 0.204E-03
   0.651E-04 -.735E+01 -.247E-04   0.110E-05 0.950E+01 0.521E-07   -.316E-21 -.141E+01 0.000E+00   -.926E-04 -.105E-03 0.653E-04
   0.465E-04 -.735E+01 -.472E-04   0.110E-05 0.950E+01 0.521E-07   0.518E-21 -.141E+01 -.187E-21   -.829E-04 0.179E-04 0.789E-04
   0.871E-04 -.735E+01 -.601E-04   0.110E-05 0.950E+01 0.521E-07   0.445E-21 -.141E+01 -.371E-21   -.141E-03 -.202E-04 0.122E-03
   -.489E-04 -.735E+01 0.251E-04   0.110E-05 0.950E+01 0.521E-07   0.690E-22 -.141E+01 0.113E-20   0.705E-04 -.188E-03 -.562E-04
   -.365E-04 -.735E+01 0.514E-04   -.621E-06 0.950E+01 -.157E-07   0.611E-21 -.141E+01 -.794E-22   0.426E-04 -.203E-03 -.560E-04
   0.294E-05 -.735E+01 -.472E-04   -.621E-06 0.950E+01 -.157E-07   -.148E-21 -.141E+01 0.947E-22   -.964E-05 -.347E-04 0.610E-04
   0.541E-05 -.735E+01 -.112E-04   -.621E-06 0.950E+01 -.157E-07   -.101E-20 -.141E+01 -.437E-21   -.408E-04 -.820E-04 0.431E-04
   0.612E-04 -.735E+01 -.823E-04   -.621E-06 0.950E+01 -.157E-07   -.287E-22 -.141E+01 -.427E-21   -.936E-04 -.126E-04 0.126E-03
   -.182E-04 0.735E+01 0.641E-04   0.110E-05 -.950E+01 -.521E-07   0.231E-21 0.141E+01 -.265E-21   0.315E-04 0.451E-04 -.379E-04
   -.572E-04 0.735E+01 -.165E-03   0.110E-05 -.950E+01 -.521E-07   0.217E-21 0.141E+01 -.860E-22   0.111E-03 0.473E-04 0.210E-03
   -.683E-04 0.735E+01 0.293E-04   0.110E-05 -.950E+01 -.521E-07   0.243E-21 0.141E+01 -.265E-22   0.111E-03 -.403E-05 0.346E-05
   -.200E-04 0.735E+01 -.132E-03   0.110E-05 -.950E+01 -.521E-07   0.123E-22 0.141E+01 0.248E-22   0.552E-04 0.647E-04 0.165E-03
   -.440E-04 0.735E+01 0.500E-04   -.621E-06 -.950E+01 0.157E-07   0.192E-22 0.141E+01 -.424E-21   0.774E-04 -.227E-04 -.155E-04
   -.711E-04 0.735E+01 -.158E-03   -.621E-06 -.950E+01 0.157E-07   0.122E-21 0.141E+01 -.457E-21   0.114E-03 0.833E-04 0.184E-03
   -.217E-04 0.735E+01 0.825E-04   -.621E-06 -.950E+01 0.157E-07   -.234E-21 0.141E+01 -.424E-21   0.392E-04 0.428E-04 -.702E-04
   -.889E-04 0.735E+01 -.175E-03   -.621E-06 -.950E+01 0.157E-07   0.242E-21 0.141E+01 0.331E-22   0.138E-03 0.272E-04 0.227E-03
   -.187E-04 0.735E+01 -.985E-05   -.479E-06 -.950E+01 0.876E-06   0.209E-21 0.141E+01 0.291E-21   0.517E-04 0.940E-04 0.410E-04
   -.584E-04 0.735E+01 -.698E-04   -.479E-06 -.950E+01 0.876E-06   0.148E-21 0.141E+01 0.378E-21   0.947E-04 0.180E-04 0.115E-03
   0.284E-04 0.735E+01 0.481E-04   -.479E-06 -.950E+01 0.876E-06   -.464E-21 0.141E+01 -.331E-21   -.344E-04 0.192E-03 -.558E-04
   -.232E-05 0.735E+01 -.528E-04   -.479E-06 -.950E+01 0.876E-06   -.163E-21 0.141E+01 -.609E-21   0.809E-05 0.318E-04 0.668E-04
   -.804E-04 0.735E+01 -.584E-04   -.428E-06 -.950E+01 -.963E-06   -.869E-22 0.141E+01 -.278E-21   0.131E-03 0.300E-04 0.126E-03
   0.488E-04 0.735E+01 0.234E-04   -.428E-06 -.950E+01 -.963E-06   -.247E-22 0.141E+01 -.298E-22   -.732E-04 0.190E-03 -.554E-04
   -.548E-04 0.735E+01 -.239E-04   -.428E-06 -.950E+01 -.963E-06   0.189E-21 0.141E+01 -.529E-22   0.833E-04 0.926E-04 0.655E-04
   -.422E-04 0.735E+01 -.476E-04   -.428E-06 -.950E+01 -.963E-06   -.609E-22 0.141E+01 0.285E-21   0.806E-04 -.218E-04 0.807E-04
   0.735E+01 -.599E-04 -.962E-06   -.950E+01 0.110E-05 -.521E-07   0.141E+01 0.968E-22 -.347E-21   0.180E-03 0.812E-04 0.293E-04
   0.735E+01 0.608E-04 0.246E-04   -.950E+01 0.110E-05 -.521E-07   0.141E+01 0.265E-22 -.840E-21   0.338E-05 -.113E-03 -.848E-04
   0.735E+01 0.693E-04 0.958E-04   -.950E+01 -.621E-06 0.157E-07   0.141E+01 -.529E-22 -.291E-21   0.856E-05 -.103E-03 -.147E-03
   0.735E+01 0.364E-04 -.238E-04   -.950E+01 -.621E-06 0.157E-07   0.141E+01 -.407E-21 -.132E-22   0.603E-04 -.696E-04 -.543E-05
   0.735E+01 0.362E-04 0.700E-04   -.950E+01 0.110E-05 -.521E-07   0.141E+01 -.199E-22 0.136E-20   -.785E-05 -.755E-04 -.107E-03
   0.735E+01 0.402E-04 -.920E-05   -.950E+01 0.110E-05 -.521E-07   0.141E+01 -.529E-22 0.612E-21   0.121E-03 -.693E-04 -.278E-04
   0.735E+01 0.789E-05 0.752E-04   -.950E+01 -.621E-06 0.157E-07   0.141E+01 0.324E-21 -.159E-21   0.439E-04 -.152E-04 -.895E-04
   0.735E+01 -.126E-04 -.859E-04   -.950E+01 -.621E-06 0.157E-07   0.141E+01 0.265E-22 0.112E-20   0.224E-03 0.193E-04 0.938E-04
   -.735E+01 -.107E-04 0.714E-04   0.950E+01 -.479E-06 -.876E-06   -.141E+01 -.337E-21 -.543E-21   -.380E-04 0.176E-04 -.884E-04
   -.735E+01 0.205E-04 -.826E-04   0.950E+01 -.479E-06 -.876E-06   -.141E+01 -.129E-20 -.602E-21   -.212E-03 -.262E-04 0.911E-04
   -.735E+01 -.377E-04 0.743E-04   0.950E+01 -.428E-06 0.963E-06   -.141E+01 0.496E-21 -.218E-21   0.191E-04 0.731E-04 -.110E-03
   -.735E+01 -.463E-04 -.109E-04   0.950E+01 -.428E-06 0.963E-06   -.141E+01 0.437E-21 0.463E-21   -.107E-03 0.741E-04 -.276E-04
   -.735E+01 -.635E-04 0.960E-04   0.950E+01 -.479E-06 -.876E-06   -.141E+01 -.936E-21 -.238E-21   -.127E-04 0.986E-04 -.142E-03
   -.735E+01 -.325E-04 -.201E-04   0.950E+01 -.479E-06 -.876E-06   -.141E+01 -.708E-21 -.281E-21   -.732E-04 0.656E-04 -.682E-05
   -.735E+01 0.541E-04 -.141E-06   0.950E+01 -.428E-06 0.963E-06   -.141E+01 -.576E-21 -.417E-21   -.190E-03 -.772E-04 0.275E-04
   -.735E+01 -.680E-04 0.199E-04   0.950E+01 -.428E-06 0.963E-06   -.141E+01 -.298E-21 -.483E-21   -.164E-04 0.122E-03 -.833E-04
   0.735E+01 0.603E-04 0.152E-03   -.950E+01 -.479E-06 0.876E-06   0.141E+01 -.735E-21 -.245E-21   0.775E-04 -.101E-03 -.177E-03
   0.735E+01 0.428E-04 -.385E-04   -.950E+01 -.479E-06 0.876E-06   0.141E+01 0.463E-21 0.582E-21   -.301E-04 -.748E-04 0.900E-06
   0.735E+01 0.729E-04 0.170E-03   -.950E+01 -.428E-06 -.963E-06   0.141E+01 0.132E-22 0.463E-22   0.416E-04 -.128E-03 -.211E-03
   0.735E+01 0.178E-04 -.541E-04   -.950E+01 -.428E-06 -.963E-06   0.141E+01 -.556E-21 0.357E-21   0.360E-04 -.361E-04 0.254E-04
   0.735E+01 0.657E-04 0.159E-03   -.950E+01 -.479E-06 0.876E-06   0.141E+01 0.523E-21 -.893E-22   0.380E-04 -.115E-03 -.214E-03
   0.735E+01 0.109E-04 -.614E-04   -.950E+01 -.479E-06 0.876E-06   0.141E+01 -.185E-21 -.265E-22   0.527E-04 -.296E-04 0.460E-04
   0.735E+01 0.410E-04 0.127E-03   -.950E+01 -.428E-06 -.963E-06   0.141E+01 0.156E-21 0.433E-21   0.668E-04 -.770E-04 -.157E-03
   0.735E+01 0.746E-04 -.565E-05   -.950E+01 -.428E-06 -.963E-06   0.141E+01 -.900E-21 0.103E-20   0.597E-05 -.117E-03 -.227E-04
   -.735E+01 -.513E-04 0.124E-03   0.950E+01 0.110E-05 0.521E-07   -.141E+01 -.589E-21 -.536E-21   -.763E-04 0.825E-04 -.154E-03
   -.735E+01 -.785E-04 -.142E-04   0.950E+01 0.110E-05 0.521E-07   -.141E+01 -.556E-21 -.291E-21   -.354E-05 0.124E-03 -.213E-04
   -.735E+01 -.595E-04 0.168E-03   0.950E+01 -.621E-06 -.157E-07   -.141E+01 -.112E-20 -.534E-21   -.459E-04 0.112E-03 -.220E-03
   -.735E+01 -.600E-05 -.646E-04   0.950E+01 -.621E-06 -.157E-07   -.141E+01 -.265E-22 -.609E-21   -.561E-04 0.251E-04 0.502E-04
   -.735E+01 -.810E-04 0.163E-03   0.950E+01 0.110E-05 0.521E-07   -.141E+01 0.142E-21 0.179E-21   -.349E-04 0.133E-03 -.206E-03
   -.735E+01 -.360E-04 -.486E-04   0.950E+01 0.110E-05 0.521E-07   -.141E+01 -.115E-20 -.238E-21   -.375E-04 0.490E-04 0.224E-04
   -.735E+01 -.505E-04 0.154E-03   0.950E+01 -.621E-06 -.157E-07   -.141E+01 -.834E-21 0.993E-22   -.658E-04 0.937E-04 -.179E-03
   -.735E+01 -.321E-04 -.350E-04   0.950E+01 -.621E-06 -.157E-07   -.141E+01 -.807E-21 0.146E-21   0.366E-04 0.629E-04 -.979E-06
 -----------------------------------------------------------------------------------------------
   -.755E-06 -.128E-03 0.189E-04   0.703E-12 0.217E-13 -.304E-12   0.200E-14 0.131E-13 0.534E-18   -.679E-04 0.113E-04 0.912E-05
 
 
 POSITION                                       TOTAL-FORCE (eV/Angst)
 -----------------------------------------------------------------------------------
      0.00000      2.89120      2.90480         0.000000     -0.000000     -0.000000
      0.00000      2.89120     14.52400         0.000000     -0.000000     -0.000000
      0.00000      8.67360      2.90480         0.000000     -0.000000      0.000000
      0.00000      8.67360     14.52400         0.000000     -0.000000     -0.000000
      5.78240      2.89120      2.90480         0.000000     -0.000000     -0.000000
      5.78240      2.89120     14.52400         0.000000     -0.000000     -0.000000
      5.78240      8.67360      2.90480         0.000000     -0.000000     -0.000000
      5.78240      8.67360     14.52400         0.000000     -0.000000     -0.000000
      0.00000      0.00000      0.00000         0.000000     -0.000000     -0.000000
      0.00000      0.00000     11.61920         0.000000     -0.000000     -0.000000
      0.00000      5.78240      0.00000         0.000000     -0.000000     -0.000000
      0.00000      5.78240     11.61920         0.000000     -0.000000     -0.000000
      5.78240      0.00000      0.00000         0.000000     -0.000000     -0.000000
      5.78240      0.00000     11.61920         0.000000     -0.000000      0.000000
      5.78240      5.78240      0.00000         0.000000     -0.000000     -0.000000
      5.78240      5.78240     11.61920         0.000000     -0.000000     -0.000000
      2.89120      0.00000      8.71440         0.000000     -0.000000     -0.000000
      2.89120      0.00000     20.33360         0.000000     -0.000000      0.000000
      2.89120      5.78240      8.71440         0.000000     -0.000000     -0.000000
      2.89120      5.78240     20.33360         0.000000     -0.000000     -0.000000
      8.67360      0.00000      8.71440         0.000000     -0.000000      0.000000
      8.67360      0.00000     20.33360         0.000000     -0.000000     -0.000000
      8.67360      5.78240      8.71440         0.000000     -0.000000     -0.000000
      8.67360      5.78240     20.33360         0.000000     -0.000000     -0.000000
      2.89120      2.89120      5.80960         0.000000     -0.000000     -0.000000
      2.89120      2.89120     17.42880         0.000000     -0.000000     -0.000000
      2.89120      8.67360      5.80960         0.000000     -0.000000     -0.000000
      2.89120      8.67360     17.42880         0.000000     -0.000000     -0.000000
      8.67360      2.89120      5.80960         0.000000     -0.000000     -0.000000
      8.67360      2.89120     17.42880         0.000000     -0.000000     -0.000000
      8.67360      8.67360      5.80960         0.000000     -0.000000     -0.000000
      8.67360      8.67360     17.42880         0.000000     -0.000000     -0.000000
      0.00000      2.89120      8.71440         0.000000     -0.000000     -0.000000
      0.00000      2.89120     20.33360         0.000000     -0.000000      0.000000
      0.00000      8.67360      8.71440         0.000000     -0.000000     -0.000000
      0.00000      8.67360     20.33360         0.000000     -0.000000     -0.000000
      5.78240      2.89120      8.71440         0.000000     -0.000000     -0.000000
      5.78240      2.89120     20.33360         0.000000     -0.000000     -0.000000
      5.78240      8.67360      8.71440         0.000000     -0.000000     -0.000000
      5.78240      8.67360     20.33360         0.000000     -0.000000      0.000000
      0.00000      0.00000      5.80960         0.000000     -0.000000      0.000000
      0.00000      0.00000     17.42880         0.000000     -0.000000      0.000000
      0.00000      5.78240      5.80960         0.000000     -0.000000     -0.000000
      0.00000      5.78240     17.42880         0.000000     -0.000000     -0.000000
      5.78240      0.00000      5.80960         0.000000     -0.000000      0.000000
      5.78240      0.00000     17.42880         0.000000     -0.000000      0.000000
      5.78240      5.78240      5.80960         0.000000     -0.000000      0.000000
      5.78240      5.78240     17.42880         0.000000     -0.000000     -0.000000
      2.89120      0.00000      2.90480         0.000000     -0.000000     -0.000000
      2.89120      0.00000     14.52400         0.000000     -0.000000     -0.000000
      2.89120      5.78240      2.90480         0.000000     -0.000000     -0.000000
      2.89120      5.78240     14.52400         0.000000     -0.000000      0.000000
      8.67360      0.00000      2.90480         0.000000     -0.000000     -0.000000
      8.67360      0.00000     14.52400         0.000000     -0.000000     -0.000000
      8.67360      5.78240      2.90480         0.000000     -0.000000      0.000000
      8.67360      5.78240     14.52400         0.000000     -0.000000     -0.000000
      2.89120      2.89120      0.00000         0.000000     -0.000000      0.000000
      2.89120      2.89120     11.61920         0.000000     -0.000000     -0.000000
      2.89120      8.67360      0.00000         0.000000     -0.000000     -0.000000
      2.89120      8.67360     11.61920         0.000000     -0.000000     -0.000000
      8.67360      2.89120      0.00000         0.000000     -0.000000      0.000000
      8.67360      2.89120     11.61920         0.000000     -0.000000      0.000000
      8.67360      8.67360      0.00000         0.000000     -0.000000     -0.000000
      8.67360      8.67360     11.61920         0.000000     -0.000000     -0.000000
      4.33680      1.53234      4.35720         0.000000      0.513931      0.000000
      4.33680      1.53234     15.97640         0.000000      0.513931     -0.000000
      4.33680      7.31474      4.35720         0.000000      0.513931     -0.000000
      4.33680      7.31474     15.97640         0.000000      0.513931     -0.000000
     10.11920      1.53234      4.35720         0.000000      0.513931      0.000000
     10.11920      1.53234     15.97640         0.000000      0.513931      0.000000
     10.11920      7.31474      4.35720         0.000000      0.513931      0.000000
     10.11920      7.31474     15.97640         0.000000      0.513931     -0.000000
      1.44560      4.42354     10.16680         0.000000      0.513931      0.000000
      1.44560      4.42354     21.78600         0.000000      0.513931     -0.000000
      1.44560     10.20594     10.16680         0.000000      0.513931      0.000000
      1.44560     10.20594     21.78600         0.000000      0.513931      0.000000
      7.22800      4.42354     10.16680         0.000000      0.513931      0.000000
      7.22800      4.42354     21.78600         0.000000      0.513931     -0.000000
      7.22800     10.20594     10.16680         0.000000      0.513931      0.000000
      7.22800     10.20594     21.78600         0.000000      0.513931      0.000000
      1.44560      4.25006      4.35720         0.000000     -0.513931     -0.000000
      1.44560      4.25006     15.97640         0.000000     -0.513931      0.000000
      1.44560     10.03246      4.35720         0.000000     -0.513931     -0.000000
      1.44560     10.03246     15.97640         0.000000     -0.513931     -0.000000
      7.22800      4.25006      4.35720         0.000000     -0.513931     -0.000000
      7.22800      4.25006     15.97640         0.000000     -0.513931     -0.000000
      7.22800     10.03246      4.35720         0.000000     -0.513931     -0.000000
      7.22800     10.03246     15.97640         0.000000     -0.513931     -0.000000
      4.33680      1.35886     10.16680         0.000000     -0.513931      0.000000
      4.33680      1.35886     21.78600         0.000000     -0.513931     -0.000000
      4.33680      7.14126     10.16680         0.000000     -0.513931     -0.000000
      4.33680      7.14126     21.78600         0.000000     -0.513931     -0.000000
     10.11920      1.35886     10.16680         0.000000     -0.513931     -0.000000
     10.11920      1.35886     21.78600         0.000000     -0.513931     -0.000000
     10.11920      7.14126     10.16680         0.000000     -0.513931      0.000000
     10.11920      7.14126     21.78600         0.000000     -0.513931     -0.000000
      1.35886      1.44560      1.45240        -0.513931     -0.000000      0.000000
      1.35886      1.44560     13.07160        -0.513931     -0.000000     -0.000000
      1.35886      7.22800      1.45240        -0.513931     -0.000000     -0.000000
      1.35886      7.22800     13.07160        -0.513931     -0.000000      0.000000
      7.14126      1.44560      1.45240        -0.513931     -0.000000      0.000000
      7.14126      1.44560     13.07160        -0.513931     -0.000000      0.000000
      7.14126      7.22800      1.45240        -0.513931     -0.000000      0.000000
      7.14126      7.22800     13.07160        -0.513931     -0.000000      0.000000
      4.42354      4.33680      1.45240         0.513931     -0.000000     -0.000000
      4.42354      4.33680     13.07160         0.513931     -0.000000     -0.000000
      4.42354     10.11920      1.45240         0.513931     -0.000000     -0.000000
      4.42354     10.11920     13.07160         0.513931     -0.000000      0.000000
     10.20594      4.33680      1.45240         0.513931     -0.000000      0.000000
     10.20594      4.33680     13.07160         0.513931     -0.000000     -0.000000
     10.20594     10.11920      1.45240         0.513931     -0.000000      0.000000
     10.20594     10.11920     13.07160         0.513931     -0.000000      0.000000
      4.25006      4.33680      7.26200        -0.513931     -0.000000      0.000000
      4.25006      4.33680     18.88120        -0.513931     -0.000000      0.000000
      4.25006     10.11920      7.26200        -0.513931     -0.000000     -0.000000
      4.25006     10.11920     18.88120        -0.513931     -0.000000      0.000000
     10.03246      4.33680      7.26200        -0.513931     -0.000000      0.000000
     10.03246      4.33680     18.88120        -0.513931     -0.000000      0.000000
     10.03246     10.11920      7.26200        -0.513931     -0.000000      0.000000
     10.03246     10.11920     18.88120        -0.513931     -0.000000      0.000000
      1.53234      1.44560      7.26200         0.513931     -0.000000     -0.000000
      1.53234      1.44560     18.88120         0.513931     -0.000000      0.000000
      1.53234      7.22800      7.26200         0.513931     -0.000000     -0.000000
      1.53234      7.22800     18.88120         0.513931     -0.000000     -0.000000
      7.31474      1.44560      7.26200         0.513931     -0.000000     -0.000000
      7.31474      1.44560     18.88120         0.513931     -0.000000      0.000000
      7.31474      7.22800      7.26200         0.513931     -0.000000     -0.000000
      7.31474      7.22800     18.88120         0.513931     -0.000000      0.000000
 -----------------------------------------------------------------------------------
    total drift:                               -0.000069     -0.000117      0.000028


--------------------------------------------------------------------------------------------------------



  FREE ENERGIE OF THE ION-ELECTRON SYSTEM (eV)
  ---------------------------------------------------
  free  energy   TOTEN  =      -666.35713526 eV

  energy  without entropy=     -666.35713526  energy(sigma->0) =     -666.35713526
 


--------------------------------------------------------------------------------------------------------


    POTLOK:  cpu time      6.3565: real time      6.4445


--------------------------------------------------------------------------------------------------------


 writing wavefunctions
     LOOP+:  cpu time   1602.2040: real time   1613.4777
    4ORBIT:  cpu time      0.0000: real time      0.0000

 total amount of memory used by VASP MPI-rank0  6487348. kBytes
=======================================================================

   base                                    :      30000. kBytes
   nonl-proj                               :     481520. kBytes
   fftplans                                :     245548. kBytes
   grid                                    :     525680. kBytes
   one-center                              :       1990. kBytes
   HF                                      :        194. kBytes
   nonlr-proj                              :      67968. kBytes
   wavefun                                 :    3512924. kBytes
   fock_wrk                                :    1621524. kBytes
 
  
  
 General timing and accounting informations for this job:
 ========================================================
  
                  Total CPU time used (sec):     1648.363
                            User time (sec):     1624.042
                          System time (sec):       24.321
                         Elapsed time (sec):     1665.937
  
                   Maximum memory used (kb):    10106380.
                   Average memory used (kb):          N/A
  
                          Minor page faults:       332790
                          Major page faults:         9684
                 Voluntary context switches:        84807
