<?xml version="1.0" encoding="ISO-8859-1"?>
<modeling>
 <generator>
  <i name="program" type="string">vasp </i>
  <i name="version" type="string">6.5.1  </i>
  <i name="subversion" type="string">10Mar25 (build Sep 17 2025 13:25:28) complex                          parallel </i>
  <i name="platform" type="string">LinuxNV </i>
  <i name="date" type="string">2026 02 13 </i>
  <i name="time" type="string">13:00:27 </i>
 </generator>
 <incar>
  <i type="string" name="SYSTEM">CuInSe</i>
  <i type="int" name="ISTART">     1</i>
  <i type="string" name="PREC">accurate</i>
  <i type="string" name="ALGO">Normal</i>
  <i type="int" name="NELMIN">     3</i>
  <i name="EDIFF">      0.00001000</i>
  <i name="ENCUT">    600.00000000</i>
  <i name="TIME">      0.40000000</i>
  <i type="int" name="ISMEAR">     0</i>
  <i name="SIGMA">      0.01000000</i>
  <i type="int" name="LMAXMIX">     4</i>
  <i name="HFSCREEN">      0.20000000</i>
  <i type="logical" name="LHFCALC"> T  </i>
  <i type="int" name="NKRED">     2</i>
  <i name="AEXX">      0.25000000</i>
  <i type="string" name="PRECFOCK">Normal</i>
 </incar>
 <primitive_cell>
  <structure name="primitive_cell" >
   <crystal>
    <varray name="basis" >
     <v>       2.89120007      -2.89120007      -5.80959988 </v>
     <v>      -2.89120007       2.89120007      -5.80959988 </v>
     <v>       2.89120007       2.89120007       5.80959988 </v>
    </varray>
    <i name="volume">    194.25066033 </i>
    <varray name="rec_basis" >
     <v>       0.17293857       0.00000000      -0.08606445 </v>
     <v>      -0.00000000       0.17293857      -0.08606445 </v>
     <v>       0.17293857       0.17293857       0.00000000 </v>
    </varray>
   </crystal>
   <varray name="positions" >
    <v>       0.75000000       0.25000000       0.50000000 </v>
    <v>       0.00000000       0.00000000       0.00000000 </v>
    <v>       0.25000000       0.75000000       0.50000000 </v>
    <v>       0.50000000       0.50000000       0.00000000 </v>
    <v>       0.37500000       0.88999999       0.01499999 </v>
    <v>       0.87500000       0.36000001       0.98500001 </v>
    <v>       0.11000000       0.12500000       0.48500000 </v>
    <v>       0.63999999       0.62500000       0.51499999 </v>
   </varray>
  </structure>
  <varray name="primitive_index" >
   <v type="int" >        1 </v>
   <v type="int" >        9 </v>
   <v type="int" >       33 </v>
   <v type="int" >       41 </v>
   <v type="int" >       69 </v>
   <v type="int" >       81 </v>
   <v type="int" >       97 </v>
   <v type="int" >      109 </v>
  </varray>
 </primitive_cell>
 <kpoints>
  <generation param="Gamma">
   <v type="int" name="divisions">       2        2        2 </v>
   <v name="usershift">      0.00000000       0.00000000       0.00000000 </v>
   <v name="genvec1">      0.50000000       0.00000000       0.00000000 </v>
   <v name="genvec2">      0.00000000       0.50000000       0.00000000 </v>
   <v name="genvec3">      0.00000000       0.00000000       0.50000000 </v>
   <v name="shift">      0.00000000       0.00000000       0.00000000 </v>
  </generation>
  <varray name="kpointlist" >
   <v>       0.00000000       0.00000000       0.00000000 </v>
   <v>       0.50000000       0.00000000       0.00000000 </v>
   <v>       0.50000000       0.50000000       0.00000000 </v>
   <v>       0.00000000       0.00000000       0.50000000 </v>
   <v>       0.50000000       0.00000000       0.50000000 </v>
   <v>       0.50000000       0.50000000       0.50000000 </v>
  </varray>
  <varray name="weights" >
   <v>       0.12500000 </v>
   <v>       0.25000000 </v>
   <v>       0.12500000 </v>
   <v>       0.12500000 </v>
   <v>       0.25000000 </v>
   <v>       0.12500000 </v>
  </varray>
 </kpoints>
 <parameters>
  <separator name="general" >
   <i type="string" name="SYSTEM">CuInSe</i>
   <i type="logical" name="LCOMPAT"> F  </i>
  </separator>
  <separator name="electronic" >
   <i type="string" name="PREC">accura</i>
   <i name="ENMAX">    600.00000000</i>
   <i name="ENAUG">    516.45600000</i>
   <i name="EDIFF">      0.00001000</i>
   <i type="int" name="IALGO">    38</i>
   <i type="int" name="IWAVPR">    10</i>
   <i type="int" name="NBANDS">   692</i>
   <i type="int" name="NBANDSLOW">    -1</i>
   <i type="int" name="NBANDSHIGH">    -1</i>
   <i name="NELECT">   1152.00000000</i>
   <i type="int" name="TURBO">     0</i>
   <i type="int" name="IRESTART">     0</i>
   <i type="int" name="NREBOOT">     0</i>
   <i type="int" name="NMIN">     0</i>
   <i name="EREF">      0.00000000</i>
   <separator name="electronic smearing" >
    <i type="int" name="ISMEAR">     0</i>
    <i name="SIGMA">      0.01000000</i>
    <i name="KSPACING">      0.50000000</i>
    <i type="logical" name="KGAMMA"> T  </i>
    <i type="logical" name="KBLOWUP"> T  </i>
   </separator>
   <separator name="electronic projectors" >
    <i type="logical" name="LREAL"> F  </i>
    <v name="ROPT">      0.00000000      0.00000000      0.00000000</v>
    <i type="int" name="LMAXPAW">  -100</i>
    <i type="int" name="LMAXMIX">     4</i>
    <i type="logical" name="NLSPLINE"> F  </i>
   </separator>
   <separator name="electronic startup" >
    <i type="int" name="ISTART">     0</i>
    <i type="int" name="ICHARG">     2</i>
    <i type="int" name="INIWAV">     1</i>
   </separator>
   <separator name="electronic spin" >
    <i type="int" name="ISPIN">     1</i>
    <i type="logical" name="LNONCOLLINEAR"> F  </i>
    <v name="MAGMOM">      1.00000000      1.00000000      1.00000000      1.00000000      1.00000000      1.00000000      1.00000000      1.00000000      1.00000000      1.00000000      1.00000000      1.00000000      1.00000000      1.00000000      1.00000000      1.00000000      1.00000000      1.00000000      1.00000000      1.00000000
      1.00000000      1.00000000      1.00000000      1.00000000      1.00000000      1.00000000      1.00000000      1.00000000      1.00000000      1.00000000      1.00000000      1.00000000      1.00000000      1.00000000      1.00000000      1.00000000      1.00000000      1.00000000      1.00000000      1.00000000
      1.00000000      1.00000000      1.00000000      1.00000000      1.00000000      1.00000000      1.00000000      1.00000000      1.00000000      1.00000000      1.00000000      1.00000000      1.00000000      1.00000000      1.00000000      1.00000000      1.00000000      1.00000000      1.00000000      1.00000000
      1.00000000      1.00000000      1.00000000      1.00000000      1.00000000      1.00000000      1.00000000      1.00000000      1.00000000      1.00000000      1.00000000      1.00000000      1.00000000      1.00000000      1.00000000      1.00000000      1.00000000      1.00000000      1.00000000      1.00000000
      1.00000000      1.00000000      1.00000000      1.00000000      1.00000000      1.00000000      1.00000000      1.00000000      1.00000000      1.00000000      1.00000000      1.00000000      1.00000000      1.00000000      1.00000000      1.00000000      1.00000000      1.00000000      1.00000000      1.00000000
      1.00000000      1.00000000      1.00000000      1.00000000      1.00000000      1.00000000      1.00000000      1.00000000      1.00000000      1.00000000      1.00000000      1.00000000      1.00000000      1.00000000      1.00000000      1.00000000      1.00000000      1.00000000      1.00000000      1.00000000
      1.00000000      1.00000000      1.00000000      1.00000000      1.00000000      1.00000000      1.00000000      1.00000000</v>
    <i name="NUPDOWN">     -1.00000000</i>
    <i type="logical" name="LSORBIT"> F  </i>
    <v name="SAXIS">      0.00000000      0.00000000      1.00000000</v>
    <i type="logical" name="LSPIRAL"> F  </i>
    <v name="QSPIRAL">      0.00000000      0.00000000      0.00000000</v>
    <i type="logical" name="LZEROZ"> F  </i>
   </separator>
   <separator name="electronic exchange-correlation" >
    <i type="logical" name="LASPH"> F  </i>
   </separator>
   <separator name="electronic convergence" >
    <i type="int" name="NELM">    60</i>
    <i type="int" name="NELMDL">     0</i>
    <i type="int" name="NELMIN">     3</i>
    <i name="ENINI">    600.00000000</i>
    <separator name="electronic convergence detail" >
     <i type="logical" name="LDIAG"> T  </i>
     <i type="logical" name="LSUBROT"> F  </i>
     <i type="logical" name="LROBUST"> F  </i>
     <i type="int" name="ISEARCH">     0</i>
     <i name="WEIMIN">      0.00000000</i>
     <i name="EBREAK">      0.00000000</i>
     <i name="DEPER">      0.30000000</i>
     <i type="int" name="NRMM">     4</i>
     <i name="TIME">      0.40000000</i>
    </separator>
   </separator>
   <separator name="electronic mixer" >
    <i name="AMIX">      0.40000000</i>
    <i name="BMIX">      1.00000000</i>
    <i name="AMIN">      0.10000000</i>
    <i name="AMIX_MAG">      1.60000000</i>
    <i name="BMIX_MAG">      1.00000000</i>
    <separator name="electronic mixer details" >
     <i type="int" name="IMIX">     1</i>
     <i type="logical" name="MIXFIRST"> F  </i>
     <i type="int" name="MAXMIX">   -45</i>
     <i name="WC">    100.00000000</i>
     <i type="int" name="INIMIX">     1</i>
     <i type="int" name="MIXPRE">     1</i>
     <i type="int" name="MREMOVE">     5</i>
    </separator>
   </separator>
   <separator name="electronic dipolcorrection" >
    <i type="logical" name="LDIPOL"> F  </i>
    <i type="logical" name="LMONO"> F  </i>
    <i type="int" name="IDIPOL">     0</i>
    <i name="EPSILON">      1.00000000</i>
    <v name="DIPOL">   -100.00000000   -100.00000000   -100.00000000</v>
    <i name="EFIELD">      0.00000000</i>
    <i type="logical" name="LVACPOTAV"> F  </i>
   </separator>
  </separator>
  <separator name="grids" >
   <i type="int" name="NGX">    96</i>
   <i type="int" name="NGY">    96</i>
   <i type="int" name="NGZ">   192</i>
   <i type="int" name="NGXF">   192</i>
   <i type="int" name="NGYF">   192</i>
   <i type="int" name="NGZF">   384</i>
   <i type="logical" name="ADDGRID"> F  </i>
  </separator>
  <separator name="ionic" >
   <i type="int" name="NSW">     0</i>
   <i type="int" name="IBRION">    -1</i>
   <i type="int" name="MDALGO">     0</i>
   <i type="int" name="ISIF">     0</i>
   <i name="PSTRESS">      0.00000000</i>
   <i name="EDIFFG">      0.00010000</i>
   <i type="int" name="NFREE">     0</i>
   <i name="POTIM">      0.50000000</i>
   <i name="SMASS">     -3.00000000</i>
   <i name="SCALEE">      1.00000000</i>
  </separator>
  <separator name="ionic md" >
   <i name="TEBEG">      0.00010000</i>
   <i name="TEEND">      0.00010000</i>
   <i type="int" name="NBLOCK">     1</i>
   <i type="int" name="KBLOCK">     1</i>
   <i type="int" name="NPACO">   256</i>
   <i name="APACO">     10.00000000</i>
  </separator>
  <separator name="symmetry" >
   <i type="int" name="ISYM">     3</i>
   <i name="SYMPREC">      0.00001000</i>
  </separator>
  <separator name="dos" >
   <i type="int" name="LORBIT">     0</i>
   <v name="RWIGS">     -1.00000000     -1.00000000     -1.00000000</v>
   <i type="int" name="NEDOS">   301</i>
   <i name="EMIN">     10.00000000</i>
   <i name="EMAX">    -10.00000000</i>
   <i name="EFERMI">      0.00000000</i>
  </separator>
  <separator name="writing" >
   <i type="int" name="NWRITE">     2</i>
   <i type="logical" name="LWAVE"> T  </i>
   <i type="logical" name="LDOWNSAMPLE"> F  </i>
   <i type="logical" name="LCHARG"> T  </i>
   <i type="logical" name="LPARD"> F  </i>
   <i type="logical" name="LVTOT"> F  </i>
   <i type="logical" name="LVHAR"> F  </i>
   <i type="logical" name="LELF"> F  </i>
   <i type="logical" name="LOPTICS"> F  </i>
   <v name="STM">      0.00000000      0.00000000      0.00000000      0.00000000      0.00000000      0.00000000      0.00000000</v>
  </separator>
  <separator name="performance" >
   <i type="int" name="NPAR">     2</i>
   <i type="int" name="NSIM">     4</i>
   <i type="int" name="NBLK">    -1</i>
   <i type="logical" name="LPLANE"> T  </i>
   <i type="logical" name="LSCALAPACK"> T  </i>
   <i type="logical" name="LSCAAWARE"> F  </i>
   <i type="logical" name="LSCALU"> F  </i>
   <i type="logical" name="LASYNC"> F  </i>
   <i type="logical" name="LORBITALREAL"> F  </i>
  </separator>
  <separator name="miscellaneous" >
   <i type="int" name="IDIOT">     3</i>
   <i type="int" name="PHON_NSTRUCT">    -1</i>
   <i type="logical" name="LMUSIC"> F  </i>
   <v name="POMASS">     63.54600000    114.82000000     78.96000000</v>
   <v name="DARWINR">      0.00000000      0.00000000      0.00000000</v>
   <v name="DARWINV">      1.00000000      1.00000000      1.00000000</v>
   <i type="logical" name="LCORR"> T  </i>
  </separator>
  <i type="logical" name="GGA_COMPAT"> T  </i>
  <i type="logical" name="LBERRY"> F  </i>
  <i type="int" name="ICORELEVEL">     0</i>
  <i type="logical" name="LDAU"> F  </i>
  <i type="int" name="I_CONSTRAINED_M">     0</i>
  <separator name="electronic exchange-correlation" >
   <i type="string" name="GGA    ">PE</i>
   <i type="string" name="XC_C">1</i>
   <i type="int" name="VOSKOWN">     0</i>
   <i type="logical" name="LHFCALC"> T  </i>
   <i type="string" name="PRECFOCK">normal</i>
   <i type="logical" name="LSYMGRAD"> F  </i>
   <i type="logical" name="LHFONE"> F  </i>
   <i type="logical" name="LRHFCALC"> F  </i>
   <i type="logical" name="LTHOMAS"> F  </i>
   <i type="logical" name="LMODELHF"> F  </i>
   <i type="logical" name="LFOCKACE"> T  </i>
   <i name="ENCUT4O">     -1.00000000</i>
   <i type="int" name="EXXOEP">     0</i>
   <i type="int" name="FOURORBIT">     0</i>
   <i name="AEXX">      0.25000000</i>
   <i name="HFALPHA">     -1.00000000</i>
   <i name="MCALPHA">      0.00000000</i>
   <i name="ALDAX">      0.75000000</i>
   <i name="AGGAX">      0.75000000</i>
   <i name="AMGGAX">      0.75000000</i>
   <i name="ALDAC">      1.00000000</i>
   <i name="AGGAC">      1.00000000</i>
   <i name="AMGGAC">      1.00000000</i>
   <i type="int" name="NKREDX">     2</i>
   <i type="int" name="NKREDY">     2</i>
   <i type="int" name="NKREDZ">     2</i>
   <i type="logical" name="SHIFTRED"> F  </i>
   <i type="logical" name="ODDONLY"> F  </i>
   <i type="logical" name="EVENONLY"> F  </i>
   <i type="int" name="LMAXFOCK">     4</i>
   <i type="int" name="NMAXFOCKAE">     1</i>
   <i type="logical" name="LFOCKAEDFT"> F  </i>
   <i name="HFSCREEN">      0.20000000</i>
   <i name="HFSCREENC">      0.20000000</i>
   <i type="int" name="NBANDSGWLOW">     1</i>
  </separator>
  <separator name="vdW DFT" >
   <i type="logical" name="LUSE_VDW"> F  </i>
   <i type="int" name="IVDW_NL">    -1</i>
   <i type="logical" name="LSPIN_VDW"> F  </i>
   <i name="ZAB_VDW">     -0.84910000</i>
   <i name="GAMMA_VDW">      1.39626340</i>
   <i name="ALPHA_VDW">      0.00000000</i>
   <i name="PARAM1">      0.12340000</i>
   <i name="PARAM2">      1.00000000</i>
   <i name="BPARAM">      6.30000000</i>
   <i name="CPARAM">      0.00930000</i>
  </separator>
  <separator name="model GW" >
   <i type="int" name="MODEL_GW">     0</i>
   <i name="MODEL_EPS0">     14.56879952</i>
   <i name="MODEL_ALPHA">      1.00000000</i>
  </separator>
  <separator name="linear response parameters" >
   <i type="logical" name="LEPSILON"> F  </i>
   <i type="logical" name="LRPA"> F  </i>
   <i type="logical" name="LNABLA"> F  </i>
   <i type="logical" name="LVEL"> F  </i>
   <i name="CSHIFT">      0.10000000</i>
   <i name="OMEGAMAX">     -1.00000000</i>
   <i name="DEG_THRESHOLD">      0.00200000</i>
   <i name="RTIME">     -0.10000000</i>
   <i name="WPLASMAI">      0.00000000</i>
   <v name="DFIELD">      0.00000000      0.00000000      0.00000000</v>
   <v name="WPLASMA">      0.00000000      0.00000000      0.00000000      0.00000000      0.00000000      0.00000000      0.00000000      0.00000000      0.00000000</v>
  </separator>
  <separator name="orbital magnetization" >
   <i type="logical" name="NUCIND"> F  </i>
   <v name="MAGPOS">      0.00000000      0.00000000      0.00000000</v>
   <i type="logical" name="LNICSALL"> T  </i>
   <i type="logical" name="ORBITALMAG"> F  </i>
   <i type="logical" name="LMAGBLOCH"> F  </i>
   <i type="logical" name="LCHIMAG"> F  </i>
   <i type="logical" name="LGAUGE"> T  </i>
   <i type="int" name="MAGATOM">     0</i>
   <v name="MAGDIPOL">      0.00000000      0.00000000      0.00000000</v>
   <v name="AVECCONST">      0.00000000      0.00000000      0.00000000</v>
  </separator>
  <separator name="response functions" >
   <i type="logical" name="LALL_IN_ONE"> F  </i>
   <i type="int" name="IALL_IN_ONE">    -1</i>
   <i type="int" name="NBANDS_WAVE">    -1</i>
   <i type="logical" name="LFINITE_TEMPERATURE"> F  </i>
   <i type="logical" name="LADDER"> F  </i>
   <i type="logical" name="LRPAFORCE"> F  </i>
   <i type="logical" name="LFXC"> F  </i>
   <i type="logical" name="LHARTREE"> T  </i>
   <i type="int" name="IBSE">     2</i>
   <v type="int" name="KPOINT">    -1     0     0     0</v>
   <i type="logical" name="LTCTC"> F  </i>
   <i type="logical" name="LTCTE"> F  </i>
   <i type="logical" name="LTETE"> F  </i>
   <i type="logical" name="LTRIPLET"> F  </i>
   <i type="logical" name="LFXCEPS"> F  </i>
   <i type="logical" name="LFXHEG"> F  </i>
   <i type="int" name="NATURALO">     2</i>
   <i type="logical" name="LHOLEGF"> F  </i>
   <i type="logical" name="L2ORDER"> F  </i>
   <i type="logical" name="LDMP1"> F  </i>
   <i type="logical" name="LMP2LT"> F  </i>
   <i type="logical" name="LSMP2LT"> F  </i>
   <i type="logical" name="LGWLF"> F  </i>
   <i name="ENCUTGW">     -1.60000002</i>
   <i name="ENCUTGWSOFT">     -1.60000002</i>
   <i name="ENCUTLF">     -1.00000000</i>
   <i type="logical" name="ESF_SPLINES"> F  </i>
   <i name="ESF_CONV">      0.01000000</i>
   <i type="int" name="ESF_NINTER">    15</i>
   <i type="int" name="LMAXMP2">    -1</i>
   <i name="SCISSOR">      0.00000000</i>
   <i type="int" name="NOMEGA">     0</i>
   <i type="int" name="NOMEGAR">     0</i>
   <i type="int" name="NBANDSGW">    -1</i>
   <i type="int" name="NBANDSO">    -1</i>
   <i type="int" name="NBANDSV">    -1</i>
   <i type="int" name="NELMGW">     1</i>
   <i type="int" name="NELMHF">     1</i>
   <i type="int" name="DIM">     3</i>
   <i type="int" name="IESPILON">     4</i>
   <i type="int" name="ANTIRES">     0</i>
   <i name="OMEGAMAX">    -30.00000000</i>
   <i name="OMEGAMIN">    -30.00000000</i>
   <i name="OMEGATL">   -200.00000000</i>
   <i type="int" name="OMEGAGRID">     0</i>
   <i name="CSHIFT">     -0.10000000</i>
   <i type="logical" name="LSELFENERGY"> F  </i>
   <i type="logical" name="LSPECTRAL"> F  </i>
   <i type="logical" name="LSPECTRALGW"> F  </i>
   <i type="logical" name="LSINGLES"> F  </i>
   <i type="logical" name="LFERMIGW"> F  </i>
   <i type="logical" name="ODDONLYGW"> F  </i>
   <i type="logical" name="EVENONLYGW"> F  </i>
   <i type="int" name="NKREDLFX">     1</i>
   <i type="int" name="NKREDLFY">     1</i>
   <i type="int" name="NKREDLFZ">     1</i>
   <i type="int" name="MAXMEM">  2800</i>
   <i type="int" name="TELESCOPE">     0</i>
   <i type="int" name="NTAUPAR">    -1</i>
   <i type="int" name="NOMEGAPAR">    -1</i>
   <i name="DAMP_NEWTON">      0.80000001</i>
   <i name="LAMBDA">      1.00000000</i>
  </separator>
  <separator name="External order field" >
   <i name="OFIELD_KAPPA">      0.00000000</i>
   <v name="OFIELD_K">      0.00000000      0.00000000      0.00000000</v>
   <i name="OFIELD_Q6_NEAR">      0.00000000</i>
   <i name="OFIELD_Q6_FAR">      0.00000000</i>
   <i name="OFIELD_A">      0.00000000</i>
  </separator>
  <separator name="optional k-points parameters" >
   <i type="int" name="KPOINTS_OPT_MODE">     1</i>
   <i type="logical" name="LKPOINTS_OPT"> F  </i>
  </separator>
 </parameters>
 <atominfo>
  <atoms>     128 </atoms>
  <types>       3 </types>
  <array name="atoms" >
   <dimension dim="1">ion</dimension>
   <field type="string">element</field>
   <field type="int">atomtype</field>
   <set>
    <rc><c>Cu</c><c>   1</c></rc>
    <rc><c>Cu</c><c>   1</c></rc>
    <rc><c>Cu</c><c>   1</c></rc>
    <rc><c>Cu</c><c>   1</c></rc>
    <rc><c>Cu</c><c>   1</c></rc>
    <rc><c>Cu</c><c>   1</c></rc>
    <rc><c>Cu</c><c>   1</c></rc>
    <rc><c>Cu</c><c>   1</c></rc>
    <rc><c>Cu</c><c>   1</c></rc>
    <rc><c>Cu</c><c>   1</c></rc>
    <rc><c>Cu</c><c>   1</c></rc>
    <rc><c>Cu</c><c>   1</c></rc>
    <rc><c>Cu</c><c>   1</c></rc>
    <rc><c>Cu</c><c>   1</c></rc>
    <rc><c>Cu</c><c>   1</c></rc>
    <rc><c>Cu</c><c>   1</c></rc>
    <rc><c>Cu</c><c>   1</c></rc>
    <rc><c>Cu</c><c>   1</c></rc>
    <rc><c>Cu</c><c>   1</c></rc>
    <rc><c>Cu</c><c>   1</c></rc>
    <rc><c>Cu</c><c>   1</c></rc>
    <rc><c>Cu</c><c>   1</c></rc>
    <rc><c>Cu</c><c>   1</c></rc>
    <rc><c>Cu</c><c>   1</c></rc>
    <rc><c>Cu</c><c>   1</c></rc>
    <rc><c>Cu</c><c>   1</c></rc>
    <rc><c>Cu</c><c>   1</c></rc>
    <rc><c>Cu</c><c>   1</c></rc>
    <rc><c>Cu</c><c>   1</c></rc>
    <rc><c>Cu</c><c>   1</c></rc>
    <rc><c>Cu</c><c>   1</c></rc>
    <rc><c>Cu</c><c>   1</c></rc>
    <rc><c>In</c><c>   2</c></rc>
    <rc><c>In</c><c>   2</c></rc>
    <rc><c>In</c><c>   2</c></rc>
    <rc><c>In</c><c>   2</c></rc>
    <rc><c>In</c><c>   2</c></rc>
    <rc><c>In</c><c>   2</c></rc>
    <rc><c>In</c><c>   2</c></rc>
    <rc><c>In</c><c>   2</c></rc>
    <rc><c>In</c><c>   2</c></rc>
    <rc><c>In</c><c>   2</c></rc>
    <rc><c>In</c><c>   2</c></rc>
    <rc><c>In</c><c>   2</c></rc>
    <rc><c>In</c><c>   2</c></rc>
    <rc><c>In</c><c>   2</c></rc>
    <rc><c>In</c><c>   2</c></rc>
    <rc><c>In</c><c>   2</c></rc>
    <rc><c>In</c><c>   2</c></rc>
    <rc><c>In</c><c>   2</c></rc>
    <rc><c>In</c><c>   2</c></rc>
    <rc><c>In</c><c>   2</c></rc>
    <rc><c>In</c><c>   2</c></rc>
    <rc><c>In</c><c>   2</c></rc>
    <rc><c>In</c><c>   2</c></rc>
    <rc><c>In</c><c>   2</c></rc>
    <rc><c>In</c><c>   2</c></rc>
    <rc><c>In</c><c>   2</c></rc>
    <rc><c>In</c><c>   2</c></rc>
    <rc><c>In</c><c>   2</c></rc>
    <rc><c>In</c><c>   2</c></rc>
    <rc><c>In</c><c>   2</c></rc>
    <rc><c>In</c><c>   2</c></rc>
    <rc><c>In</c><c>   2</c></rc>
    <rc><c>Se</c><c>   3</c></rc>
    <rc><c>Se</c><c>   3</c></rc>
    <rc><c>Se</c><c>   3</c></rc>
    <rc><c>Se</c><c>   3</c></rc>
    <rc><c>Se</c><c>   3</c></rc>
    <rc><c>Se</c><c>   3</c></rc>
    <rc><c>Se</c><c>   3</c></rc>
    <rc><c>Se</c><c>   3</c></rc>
    <rc><c>Se</c><c>   3</c></rc>
    <rc><c>Se</c><c>   3</c></rc>
    <rc><c>Se</c><c>   3</c></rc>
    <rc><c>Se</c><c>   3</c></rc>
    <rc><c>Se</c><c>   3</c></rc>
    <rc><c>Se</c><c>   3</c></rc>
    <rc><c>Se</c><c>   3</c></rc>
    <rc><c>Se</c><c>   3</c></rc>
    <rc><c>Se</c><c>   3</c></rc>
    <rc><c>Se</c><c>   3</c></rc>
    <rc><c>Se</c><c>   3</c></rc>
    <rc><c>Se</c><c>   3</c></rc>
    <rc><c>Se</c><c>   3</c></rc>
    <rc><c>Se</c><c>   3</c></rc>
    <rc><c>Se</c><c>   3</c></rc>
    <rc><c>Se</c><c>   3</c></rc>
    <rc><c>Se</c><c>   3</c></rc>
    <rc><c>Se</c><c>   3</c></rc>
    <rc><c>Se</c><c>   3</c></rc>
    <rc><c>Se</c><c>   3</c></rc>
    <rc><c>Se</c><c>   3</c></rc>
    <rc><c>Se</c><c>   3</c></rc>
    <rc><c>Se</c><c>   3</c></rc>
    <rc><c>Se</c><c>   3</c></rc>
    <rc><c>Se</c><c>   3</c></rc>
    <rc><c>Se</c><c>   3</c></rc>
    <rc><c>Se</c><c>   3</c></rc>
    <rc><c>Se</c><c>   3</c></rc>
    <rc><c>Se</c><c>   3</c></rc>
    <rc><c>Se</c><c>   3</c></rc>
    <rc><c>Se</c><c>   3</c></rc>
    <rc><c>Se</c><c>   3</c></rc>
    <rc><c>Se</c><c>   3</c></rc>
    <rc><c>Se</c><c>   3</c></rc>
    <rc><c>Se</c><c>   3</c></rc>
    <rc><c>Se</c><c>   3</c></rc>
    <rc><c>Se</c><c>   3</c></rc>
    <rc><c>Se</c><c>   3</c></rc>
    <rc><c>Se</c><c>   3</c></rc>
    <rc><c>Se</c><c>   3</c></rc>
    <rc><c>Se</c><c>   3</c></rc>
    <rc><c>Se</c><c>   3</c></rc>
    <rc><c>Se</c><c>   3</c></rc>
    <rc><c>Se</c><c>   3</c></rc>
    <rc><c>Se</c><c>   3</c></rc>
    <rc><c>Se</c><c>   3</c></rc>
    <rc><c>Se</c><c>   3</c></rc>
    <rc><c>Se</c><c>   3</c></rc>
    <rc><c>Se</c><c>   3</c></rc>
    <rc><c>Se</c><c>   3</c></rc>
    <rc><c>Se</c><c>   3</c></rc>
    <rc><c>Se</c><c>   3</c></rc>
    <rc><c>Se</c><c>   3</c></rc>
    <rc><c>Se</c><c>   3</c></rc>
    <rc><c>Se</c><c>   3</c></rc>
    <rc><c>Se</c><c>   3</c></rc>
   </set>
  </array>
  <array name="atomtypes" >
   <dimension dim="1">type</dimension>
   <field type="int">atomspertype</field>
   <field type="string">element</field>
   <field>mass</field>
   <field>valence</field>
   <field type="string">pseudopotential</field>
   <set>
    <rc><c>  32</c><c>Cu</c><c>     63.54600000</c><c>     11.00000000</c><c> PAW_PBE Cu 05Jan2001                   </c></rc>
    <rc><c>  32</c><c>In</c><c>    114.82000000</c><c>     13.00000000</c><c> PAW_PBE In_d 06Sep2000                 </c></rc>
    <rc><c>  64</c><c>Se</c><c>     78.96000000</c><c>      6.00000000</c><c> PAW_PBE Se 06Sep2000                   </c></rc>
   </set>
  </array>
 </atominfo>
 <structure name="initialpos" >
  <crystal>
   <varray name="basis" >
    <v>      11.56480026       0.00000000       0.00000000 </v>
    <v>       0.00000000      11.56480026       0.00000000 </v>
    <v>       0.00000000       0.00000000      23.23839951 </v>
   </varray>
   <i name="volume">   3108.01056530 </i>
   <varray name="rec_basis" >
    <v>       0.08646928       0.00000000       0.00000000 </v>
    <v>       0.00000000       0.08646928       0.00000000 </v>
    <v>       0.00000000       0.00000000       0.04303222 </v>
   </varray>
  </crystal>
  <varray name="positions" >
   <v>       0.00000000       0.25000000       0.12500000 </v>
   <v>       0.00000000       0.25000000       0.62500000 </v>
   <v>       0.00000000       0.75000000       0.12500000 </v>
   <v>       0.00000000       0.75000000       0.62500000 </v>
   <v>       0.50000000       0.25000000       0.12500000 </v>
   <v>       0.50000000       0.25000000       0.62500000 </v>
   <v>       0.50000000       0.75000000       0.12500000 </v>
   <v>       0.50000000       0.75000000       0.62500000 </v>
   <v>       0.00000000       0.00000000       0.00000000 </v>
   <v>       0.00000000       0.00000000       0.50000000 </v>
   <v>       0.00000000       0.50000000       0.00000000 </v>
   <v>       0.00000000       0.50000000       0.50000000 </v>
   <v>       0.50000000       0.00000000       0.00000000 </v>
   <v>       0.50000000       0.00000000       0.50000000 </v>
   <v>       0.50000000       0.50000000       0.00000000 </v>
   <v>       0.50000000       0.50000000       0.50000000 </v>
   <v>       0.25000000       0.00000000       0.37500000 </v>
   <v>       0.25000000       0.00000000       0.87500000 </v>
   <v>       0.25000000       0.50000000       0.37500000 </v>
   <v>       0.25000000       0.50000000       0.87500000 </v>
   <v>       0.75000000       0.00000000       0.37500000 </v>
   <v>       0.75000000       0.00000000       0.87500000 </v>
   <v>       0.75000000       0.50000000       0.37500000 </v>
   <v>       0.75000000       0.50000000       0.87500000 </v>
   <v>       0.25000000       0.25000000       0.25000000 </v>
   <v>       0.25000000       0.25000000       0.75000000 </v>
   <v>       0.25000000       0.75000000       0.25000000 </v>
   <v>       0.25000000       0.75000000       0.75000000 </v>
   <v>       0.75000000       0.25000000       0.25000000 </v>
   <v>       0.75000000       0.25000000       0.75000000 </v>
   <v>       0.75000000       0.75000000       0.25000000 </v>
   <v>       0.75000000       0.75000000       0.75000000 </v>
   <v>       0.00000000       0.25000000       0.37500000 </v>
   <v>       0.00000000       0.25000000       0.87500000 </v>
   <v>       0.00000000       0.75000000       0.37500000 </v>
   <v>       0.00000000       0.75000000       0.87500000 </v>
   <v>       0.50000000       0.25000000       0.37500000 </v>
   <v>       0.50000000       0.25000000       0.87500000 </v>
   <v>       0.50000000       0.75000000       0.37500000 </v>
   <v>       0.50000000       0.75000000       0.87500000 </v>
   <v>       0.00000000       0.00000000       0.25000000 </v>
   <v>       0.00000000       0.00000000       0.75000000 </v>
   <v>       0.00000000       0.50000000       0.25000000 </v>
   <v>       0.00000000       0.50000000       0.75000000 </v>
   <v>       0.50000000       0.00000000       0.25000000 </v>
   <v>       0.50000000       0.00000000       0.75000000 </v>
   <v>       0.50000000       0.50000000       0.25000000 </v>
   <v>       0.50000000       0.50000000       0.75000000 </v>
   <v>       0.25000000       0.00000000       0.12500000 </v>
   <v>       0.25000000       0.00000000       0.62500000 </v>
   <v>       0.25000000       0.50000000       0.12500000 </v>
   <v>       0.25000000       0.50000000       0.62500000 </v>
   <v>       0.75000000       0.00000000       0.12500000 </v>
   <v>       0.75000000       0.00000000       0.62500000 </v>
   <v>       0.75000000       0.50000000       0.12500000 </v>
   <v>       0.75000000       0.50000000       0.62500000 </v>
   <v>       0.25000000       0.25000000       0.00000000 </v>
   <v>       0.25000000       0.25000000       0.50000000 </v>
   <v>       0.25000000       0.75000000       0.00000000 </v>
   <v>       0.25000000       0.75000000       0.50000000 </v>
   <v>       0.75000000       0.25000000       0.00000000 </v>
   <v>       0.75000000       0.25000000       0.50000000 </v>
   <v>       0.75000000       0.75000000       0.00000000 </v>
   <v>       0.75000000       0.75000000       0.50000000 </v>
   <v>       0.37500000       0.13249999       0.18750000 </v>
   <v>       0.37500000       0.13249999       0.68750000 </v>
   <v>       0.37500000       0.63249999       0.18750000 </v>
   <v>       0.37500000       0.63249999       0.68750000 </v>
   <v>       0.87500000       0.13249999       0.18750000 </v>
   <v>       0.87500000       0.13249999       0.68750000 </v>
   <v>       0.87500000       0.63249999       0.18750000 </v>
   <v>       0.87500000       0.63249999       0.68750000 </v>
   <v>       0.12500000       0.38249999       0.43750000 </v>
   <v>       0.12500000       0.38249999       0.93750000 </v>
   <v>       0.12500000       0.88249999       0.43750000 </v>
   <v>       0.12500000       0.88249999       0.93750000 </v>
   <v>       0.62500000       0.38249999       0.43750000 </v>
   <v>       0.62500000       0.38249999       0.93750000 </v>
   <v>       0.62500000       0.88249999       0.43750000 </v>
   <v>       0.62500000       0.88249999       0.93750000 </v>
   <v>       0.12500000       0.36750001       0.18750000 </v>
   <v>       0.12500000       0.36750001       0.68750000 </v>
   <v>       0.12500000       0.86750001       0.18750000 </v>
   <v>       0.12500000       0.86750001       0.68750000 </v>
   <v>       0.62500000       0.36750001       0.18750000 </v>
   <v>       0.62500000       0.36750001       0.68750000 </v>
   <v>       0.62500000       0.86750001       0.18750000 </v>
   <v>       0.62500000       0.86750001       0.68750000 </v>
   <v>       0.37500000       0.11750000       0.43750000 </v>
   <v>       0.37500000       0.11750000       0.93750000 </v>
   <v>       0.37500000       0.61750001       0.43750000 </v>
   <v>       0.37500000       0.61750001       0.93750000 </v>
   <v>       0.87500000       0.11750000       0.43750000 </v>
   <v>       0.87500000       0.11750000       0.93750000 </v>
   <v>       0.87500000       0.61750001       0.43750000 </v>
   <v>       0.87500000       0.61750001       0.93750000 </v>
   <v>       0.11750000       0.12500000       0.06250000 </v>
   <v>       0.11750000       0.12500000       0.56250000 </v>
   <v>       0.11750000       0.62500000       0.06250000 </v>
   <v>       0.11750000       0.62500000       0.56250000 </v>
   <v>       0.61750001       0.12500000       0.06250000 </v>
   <v>       0.61750001       0.12500000       0.56250000 </v>
   <v>       0.61750001       0.62500000       0.06250000 </v>
   <v>       0.61750001       0.62500000       0.56250000 </v>
   <v>       0.38249999       0.37500000       0.06250000 </v>
   <v>       0.38249999       0.37500000       0.56250000 </v>
   <v>       0.38249999       0.87500000       0.06250000 </v>
   <v>       0.38249999       0.87500000       0.56250000 </v>
   <v>       0.88249999       0.37500000       0.06250000 </v>
   <v>       0.88249999       0.37500000       0.56250000 </v>
   <v>       0.88249999       0.87500000       0.06250000 </v>
   <v>       0.88249999       0.87500000       0.56250000 </v>
   <v>       0.36750001       0.37500000       0.31250000 </v>
   <v>       0.36750001       0.37500000       0.81250000 </v>
   <v>       0.36750001       0.87500000       0.31250000 </v>
   <v>       0.36750001       0.87500000       0.81250000 </v>
   <v>       0.86750001       0.37500000       0.31250000 </v>
   <v>       0.86750001       0.37500000       0.81250000 </v>
   <v>       0.86750001       0.87500000       0.31250000 </v>
   <v>       0.86750001       0.87500000       0.81250000 </v>
   <v>       0.13249999       0.12500000       0.31250000 </v>
   <v>       0.13249999       0.12500000       0.81250000 </v>
   <v>       0.13249999       0.62500000       0.31250000 </v>
   <v>       0.13249999       0.62500000       0.81250000 </v>
   <v>       0.63249999       0.12500000       0.31250000 </v>
   <v>       0.63249999       0.12500000       0.81250000 </v>
   <v>       0.63249999       0.62500000       0.31250000 </v>
   <v>       0.63249999       0.62500000       0.81250000 </v>
  </varray>
 </structure>
 <calculation>
  <scstep>
   <time name="dav">   13.83   14.59</time>
   <time name="total">   14.43   16.20</time>
   <energy>
    <i name="alphaZ">   3590.49188669 </i>
    <i name="ewald"> -75122.05347602 </i>
    <i name="hartreedc"> -36129.95408452 </i>
    <i name="XCdc">   2689.61918491 </i>
    <i name="pawpsdc">  80361.77678867 </i>
    <i name="pawaedc">-162278.69869501 </i>
    <i name="eentropy">     -0.00000729 </i>
    <i name="bandstr">   8739.62544882 </i>
    <i name="atom"> 111100.60618623 </i>
    <i name="e_fr_energy"> -67048.58676752 </i>
    <i name="e_wo_entrp"> -67048.58676022 </i>
    <i name="e_0_energy"> -67048.58676387 </i>
   </energy>
  </scstep>
  <scstep>
   <time name="dav">    7.52    7.54</time>
   <time name="total">    7.52    7.54</time>
   <energy>
    <i name="e_fr_energy"> -78984.98964896 </i>
    <i name="e_wo_entrp"> -78984.98791867 </i>
    <i name="e_0_energy"> -78984.98878382 </i>
   </energy>
  </scstep>
  <scstep>
   <time name="dav">    7.79    7.82</time>
   <time name="total">    7.79    7.82</time>
   <energy>
    <i name="e_fr_energy"> -81809.76861409 </i>
    <i name="e_wo_entrp"> -81809.76861409 </i>
    <i name="e_0_energy"> -81809.76861409 </i>
   </energy>
  </scstep>
  <scstep>
   <time name="dav">    8.74    8.76</time>
   <time name="total">    8.74    8.76</time>
   <energy>
    <i name="e_fr_energy"> -82172.73724391 </i>
    <i name="e_wo_entrp"> -82172.73724391 </i>
    <i name="e_0_energy"> -82172.73724391 </i>
   </energy>
  </scstep>
  <scstep>
   <time name="dav">   74.99   75.20</time>
   <time name="total">   81.82   82.05</time>
   <energy>
    <i name="e_fr_energy">   -673.74036110 </i>
    <i name="e_wo_entrp">   -673.74036110 </i>
    <i name="e_0_energy">   -673.74036110 </i>
   </energy>
  </scstep>
  <scstep>
   <time name="dav">   75.67   76.18</time>
   <time name="total">   82.49   83.01</time>
   <energy>
    <i name="e_fr_energy">   -668.73300259 </i>
    <i name="e_wo_entrp">   -668.73300259 </i>
    <i name="e_0_energy">   -668.73300259 </i>
   </energy>
  </scstep>
  <scstep>
   <time name="dav">   75.88   76.33</time>
   <time name="total">   82.63   83.09</time>
   <energy>
    <i name="e_fr_energy">   -666.01140196 </i>
    <i name="e_wo_entrp">   -666.01140196 </i>
    <i name="e_0_energy">   -666.01140196 </i>
   </energy>
  </scstep>
  <scstep>
   <time name="dav">   74.26   74.74</time>
   <time name="total">   81.08   81.58</time>
   <energy>
    <i name="e_fr_energy">   -666.46478945 </i>
    <i name="e_wo_entrp">   -666.46478945 </i>
    <i name="e_0_energy">   -666.46478945 </i>
   </energy>
  </scstep>
  <scstep>
   <time name="dav">   74.56   74.97</time>
   <time name="total">   81.37   81.80</time>
   <energy>
    <i name="e_fr_energy">   -666.41730620 </i>
    <i name="e_wo_entrp">   -666.41730620 </i>
    <i name="e_0_energy">   -666.41730620 </i>
   </energy>
  </scstep>
  <scstep>
   <time name="dav">   75.25   75.64</time>
   <time name="total">   81.98   82.46</time>
   <energy>
    <i name="e_fr_energy">   -666.36134313 </i>
    <i name="e_wo_entrp">   -666.36134313 </i>
    <i name="e_0_energy">   -666.36134313 </i>
   </energy>
  </scstep>
  <scstep>
   <time name="dav">   74.98   75.42</time>
   <time name="total">   81.73   82.18</time>
   <energy>
    <i name="e_fr_energy">   -666.35232352 </i>
    <i name="e_wo_entrp">   -666.35232352 </i>
    <i name="e_0_energy">   -666.35232352 </i>
   </energy>
  </scstep>
  <scstep>
   <time name="dav">   74.52   74.98</time>
   <time name="total">   81.39   81.86</time>
   <energy>
    <i name="e_fr_energy">   -666.35316435 </i>
    <i name="e_wo_entrp">   -666.35316435 </i>
    <i name="e_0_energy">   -666.35316435 </i>
   </energy>
  </scstep>
  <scstep>
   <time name="dav">   74.65   75.05</time>
   <time name="total">   81.43   81.85</time>
   <energy>
    <i name="e_fr_energy">   -666.35445398 </i>
    <i name="e_wo_entrp">   -666.35445398 </i>
    <i name="e_0_energy">   -666.35445398 </i>
   </energy>
  </scstep>
  <scstep>
   <time name="dav">   74.40   74.92</time>
   <time name="total">   81.18   81.72</time>
   <energy>
    <i name="e_fr_energy">   -666.35548315 </i>
    <i name="e_wo_entrp">   -666.35548315 </i>
    <i name="e_0_energy">   -666.35548315 </i>
   </energy>
  </scstep>
  <scstep>
   <time name="dav">   73.78   74.27</time>
   <time name="total">   80.54   81.04</time>
   <energy>
    <i name="e_fr_energy">   -666.35620300 </i>
    <i name="e_wo_entrp">   -666.35620300 </i>
    <i name="e_0_energy">   -666.35620300 </i>
   </energy>
  </scstep>
  <scstep>
   <time name="dav">   73.00   73.39</time>
   <time name="total">   79.77   80.19</time>
   <energy>
    <i name="e_fr_energy">   -666.35663690 </i>
    <i name="e_wo_entrp">   -666.35663690 </i>
    <i name="e_0_energy">   -666.35663690 </i>
   </energy>
  </scstep>
  <scstep>
   <time name="dav">   73.07   73.48</time>
   <time name="total">   79.75   80.25</time>
   <energy>
    <i name="e_fr_energy">   -666.35687769 </i>
    <i name="e_wo_entrp">   -666.35687769 </i>
    <i name="e_0_energy">   -666.35687769 </i>
   </energy>
  </scstep>
  <scstep>
   <time name="dav">   72.66   73.09</time>
   <time name="total">   79.49   79.93</time>
   <energy>
    <i name="e_fr_energy">   -666.35700553 </i>
    <i name="e_wo_entrp">   -666.35700553 </i>
    <i name="e_0_energy">   -666.35700553 </i>
   </energy>
  </scstep>
  <scstep>
   <time name="dav">   72.78   72.95</time>
   <time name="total">   79.64   79.82</time>
   <energy>
    <i name="e_fr_energy">   -666.35707304 </i>
    <i name="e_wo_entrp">   -666.35707304 </i>
    <i name="e_0_energy">   -666.35707304 </i>
   </energy>
  </scstep>
  <scstep>
   <time name="dav">   71.33   71.54</time>
   <time name="total">   78.08   78.30</time>
   <energy>
    <i name="e_fr_energy">   -666.35710781 </i>
    <i name="e_wo_entrp">   -666.35710781 </i>
    <i name="e_0_energy">   -666.35710781 </i>
   </energy>
  </scstep>
  <scstep>
   <time name="dav">   70.86   71.31</time>
   <time name="total">   77.67   78.14</time>
   <energy>
    <i name="e_fr_energy">   -666.35712580 </i>
    <i name="e_wo_entrp">   -666.35712580 </i>
    <i name="e_0_energy">   -666.35712580 </i>
   </energy>
  </scstep>
  <scstep>
   <time name="dav">   70.66   71.08</time>
   <time name="total">   77.05   77.49</time>
   <energy>
    <i name="alphaZ">   3590.49188669 </i>
    <i name="ewald"> -75122.05347602 </i>
    <i name="hartreedc"> -35966.93962119 </i>
    <i name="XCdc">   2011.47598413 </i>
    <i name="pawpsdc">  84112.96269228 </i>
    <i name="pawaedc"> -87353.56348015 </i>
    <i name="eentropy">     -0.00000000 </i>
    <i name="bandstr">  -5613.49563558 </i>
    <i name="atom"> 111100.60618623 </i>
    <i name="e_fr_energy">   -666.35713526 </i>
    <i name="e_wo_entrp">   -666.35713526 </i>
    <i name="e_0_energy">   -666.35713526 </i>
   </energy>
  </scstep>
  <structure>
   <crystal>
    <varray name="basis" >
     <v>      11.56480026       0.00000000       0.00000000 </v>
     <v>       0.00000000      11.56480026       0.00000000 </v>
     <v>       0.00000000       0.00000000      23.23839951 </v>
    </varray>
    <i name="volume">   3108.01056530 </i>
    <varray name="rec_basis" >
     <v>       0.08646928       0.00000000       0.00000000 </v>
     <v>       0.00000000       0.08646928       0.00000000 </v>
     <v>       0.00000000       0.00000000       0.04303222 </v>
    </varray>
   </crystal>
   <varray name="positions" >
    <v>       0.00000000       0.25000000       0.12500000 </v>
    <v>       0.00000000       0.25000000       0.62500000 </v>
    <v>       0.00000000       0.75000000       0.12500000 </v>
    <v>       0.00000000       0.75000000       0.62500000 </v>
    <v>       0.50000000       0.25000000       0.12500000 </v>
    <v>       0.50000000       0.25000000       0.62500000 </v>
    <v>       0.50000000       0.75000000       0.12500000 </v>
    <v>       0.50000000       0.75000000       0.62500000 </v>
    <v>       0.00000000       0.00000000       0.00000000 </v>
    <v>       0.00000000       0.00000000       0.50000000 </v>
    <v>       0.00000000       0.50000000       0.00000000 </v>
    <v>       0.00000000       0.50000000       0.50000000 </v>
    <v>       0.50000000       0.00000000       0.00000000 </v>
    <v>       0.50000000       0.00000000       0.50000000 </v>
    <v>       0.50000000       0.50000000       0.00000000 </v>
    <v>       0.50000000       0.50000000       0.50000000 </v>
    <v>       0.25000000       0.00000000       0.37500000 </v>
    <v>       0.25000000       0.00000000       0.87500000 </v>
    <v>       0.25000000       0.50000000       0.37500000 </v>
    <v>       0.25000000       0.50000000       0.87500000 </v>
    <v>       0.75000000       0.00000000       0.37500000 </v>
    <v>       0.75000000       0.00000000       0.87500000 </v>
    <v>       0.75000000       0.50000000       0.37500000 </v>
    <v>       0.75000000       0.50000000       0.87500000 </v>
    <v>       0.25000000       0.25000000       0.25000000 </v>
    <v>       0.25000000       0.25000000       0.75000000 </v>
    <v>       0.25000000       0.75000000       0.25000000 </v>
    <v>       0.25000000       0.75000000       0.75000000 </v>
    <v>       0.75000000       0.25000000       0.25000000 </v>
    <v>       0.75000000       0.25000000       0.75000000 </v>
    <v>       0.75000000       0.75000000       0.25000000 </v>
    <v>       0.75000000       0.75000000       0.75000000 </v>
    <v>       0.00000000       0.25000000       0.37500000 </v>
    <v>       0.00000000       0.25000000       0.87500000 </v>
    <v>       0.00000000       0.75000000       0.37500000 </v>
    <v>       0.00000000       0.75000000       0.87500000 </v>
    <v>       0.50000000       0.25000000       0.37500000 </v>
    <v>       0.50000000       0.25000000       0.87500000 </v>
    <v>       0.50000000       0.75000000       0.37500000 </v>
    <v>       0.50000000       0.75000000       0.87500000 </v>
    <v>       0.00000000       0.00000000       0.25000000 </v>
    <v>       0.00000000       0.00000000       0.75000000 </v>
    <v>       0.00000000       0.50000000       0.25000000 </v>
    <v>       0.00000000       0.50000000       0.75000000 </v>
    <v>       0.50000000       0.00000000       0.25000000 </v>
    <v>       0.50000000       0.00000000       0.75000000 </v>
    <v>       0.50000000       0.50000000       0.25000000 </v>
    <v>       0.50000000       0.50000000       0.75000000 </v>
    <v>       0.25000000       0.00000000       0.12500000 </v>
    <v>       0.25000000       0.00000000       0.62500000 </v>
    <v>       0.25000000       0.50000000       0.12500000 </v>
    <v>       0.25000000       0.50000000       0.62500000 </v>
    <v>       0.75000000       0.00000000       0.12500000 </v>
    <v>       0.75000000       0.00000000       0.62500000 </v>
    <v>       0.75000000       0.50000000       0.12500000 </v>
    <v>       0.75000000       0.50000000       0.62500000 </v>
    <v>       0.25000000       0.25000000       0.00000000 </v>
    <v>       0.25000000       0.25000000       0.50000000 </v>
    <v>       0.25000000       0.75000000       0.00000000 </v>
    <v>       0.25000000       0.75000000       0.50000000 </v>
    <v>       0.75000000       0.25000000       0.00000000 </v>
    <v>       0.75000000       0.25000000       0.50000000 </v>
    <v>       0.75000000       0.75000000       0.00000000 </v>
    <v>       0.75000000       0.75000000       0.50000000 </v>
    <v>       0.37500000       0.13249999       0.18750000 </v>
    <v>       0.37500000       0.13249999       0.68750000 </v>
    <v>       0.37500000       0.63249999       0.18750000 </v>
    <v>       0.37500000       0.63249999       0.68750000 </v>
    <v>       0.87500000       0.13249999       0.18750000 </v>
    <v>       0.87500000       0.13249999       0.68750000 </v>
    <v>       0.87500000       0.63249999       0.18750000 </v>
    <v>       0.87500000       0.63249999       0.68750000 </v>
    <v>       0.12500000       0.38249999       0.43750000 </v>
    <v>       0.12500000       0.38249999       0.93750000 </v>
    <v>       0.12500000       0.88249999       0.43750000 </v>
    <v>       0.12500000       0.88249999       0.93750000 </v>
    <v>       0.62500000       0.38249999       0.43750000 </v>
    <v>       0.62500000       0.38249999       0.93750000 </v>
    <v>       0.62500000       0.88249999       0.43750000 </v>
    <v>       0.62500000       0.88249999       0.93750000 </v>
    <v>       0.12500000       0.36750001       0.18750000 </v>
    <v>       0.12500000       0.36750001       0.68750000 </v>
    <v>       0.12500000       0.86750001       0.18750000 </v>
    <v>       0.12500000       0.86750001       0.68750000 </v>
    <v>       0.62500000       0.36750001       0.18750000 </v>
    <v>       0.62500000       0.36750001       0.68750000 </v>
    <v>       0.62500000       0.86750001       0.18750000 </v>
    <v>       0.62500000       0.86750001       0.68750000 </v>
    <v>       0.37500000       0.11750000       0.43750000 </v>
    <v>       0.37500000       0.11750000       0.93750000 </v>
    <v>       0.37500000       0.61750001       0.43750000 </v>
    <v>       0.37500000       0.61750001       0.93750000 </v>
    <v>       0.87500000       0.11750000       0.43750000 </v>
    <v>       0.87500000       0.11750000       0.93750000 </v>
    <v>       0.87500000       0.61750001       0.43750000 </v>
    <v>       0.87500000       0.61750001       0.93750000 </v>
    <v>       0.11750000       0.12500000       0.06250000 </v>
    <v>       0.11750000       0.12500000       0.56250000 </v>
    <v>       0.11750000       0.62500000       0.06250000 </v>
    <v>       0.11750000       0.62500000       0.56250000 </v>
    <v>       0.61750001       0.12500000       0.06250000 </v>
    <v>       0.61750001       0.12500000       0.56250000 </v>
    <v>       0.61750001       0.62500000       0.06250000 </v>
    <v>       0.61750001       0.62500000       0.56250000 </v>
    <v>       0.38249999       0.37500000       0.06250000 </v>
    <v>       0.38249999       0.37500000       0.56250000 </v>
    <v>       0.38249999       0.87500000       0.06250000 </v>
    <v>       0.38249999       0.87500000       0.56250000 </v>
    <v>       0.88249999       0.37500000       0.06250000 </v>
    <v>       0.88249999       0.37500000       0.56250000 </v>
    <v>       0.88249999       0.87500000       0.06250000 </v>
    <v>       0.88249999       0.87500000       0.56250000 </v>
    <v>       0.36750001       0.37500000       0.31250000 </v>
    <v>       0.36750001       0.37500000       0.81250000 </v>
    <v>       0.36750001       0.87500000       0.31250000 </v>
    <v>       0.36750001       0.87500000       0.81250000 </v>
    <v>       0.86750001       0.37500000       0.31250000 </v>
    <v>       0.86750001       0.37500000       0.81250000 </v>
    <v>       0.86750001       0.87500000       0.31250000 </v>
    <v>       0.86750001       0.87500000       0.81250000 </v>
    <v>       0.13249999       0.12500000       0.31250000 </v>
    <v>       0.13249999       0.12500000       0.81250000 </v>
    <v>       0.13249999       0.62500000       0.31250000 </v>
    <v>       0.13249999       0.62500000       0.81250000 </v>
    <v>       0.63249999       0.12500000       0.31250000 </v>
    <v>       0.63249999       0.12500000       0.81250000 </v>
    <v>       0.63249999       0.62500000       0.31250000 </v>
    <v>       0.63249999       0.62500000       0.81250000 </v>
   </varray>
  </structure>
  <varray name="forces" >
   <v>       0.00000000      -0.00000000      -0.00000000 </v>
   <v>       0.00000000      -0.00000000      -0.00000000 </v>
   <v>       0.00000000      -0.00000000       0.00000000 </v>
   <v>       0.00000000      -0.00000000      -0.00000000 </v>
   <v>       0.00000000      -0.00000000      -0.00000000 </v>
   <v>       0.00000000      -0.00000000      -0.00000000 </v>
   <v>       0.00000000      -0.00000000      -0.00000000 </v>
   <v>       0.00000000      -0.00000000      -0.00000000 </v>
   <v>       0.00000000      -0.00000000      -0.00000000 </v>
   <v>       0.00000000      -0.00000000      -0.00000000 </v>
   <v>       0.00000000      -0.00000000      -0.00000000 </v>
   <v>       0.00000000      -0.00000000      -0.00000000 </v>
   <v>       0.00000000      -0.00000000      -0.00000000 </v>
   <v>       0.00000000      -0.00000000       0.00000000 </v>
   <v>       0.00000000      -0.00000000      -0.00000000 </v>
   <v>       0.00000000      -0.00000000      -0.00000000 </v>
   <v>       0.00000000      -0.00000000      -0.00000000 </v>
   <v>       0.00000000      -0.00000000       0.00000000 </v>
   <v>       0.00000000      -0.00000000      -0.00000000 </v>
   <v>       0.00000000      -0.00000000      -0.00000000 </v>
   <v>       0.00000000      -0.00000000       0.00000000 </v>
   <v>       0.00000000      -0.00000000      -0.00000000 </v>
   <v>       0.00000000      -0.00000000      -0.00000000 </v>
   <v>       0.00000000      -0.00000000      -0.00000000 </v>
   <v>       0.00000000      -0.00000000      -0.00000000 </v>
   <v>       0.00000000      -0.00000000      -0.00000000 </v>
   <v>       0.00000000      -0.00000000      -0.00000000 </v>
   <v>       0.00000000      -0.00000000      -0.00000000 </v>
   <v>       0.00000000      -0.00000000      -0.00000000 </v>
   <v>       0.00000000      -0.00000000      -0.00000000 </v>
   <v>       0.00000000      -0.00000000      -0.00000000 </v>
   <v>       0.00000000      -0.00000000      -0.00000000 </v>
   <v>       0.00000000      -0.00000000      -0.00000000 </v>
   <v>       0.00000000      -0.00000000       0.00000000 </v>
   <v>       0.00000000      -0.00000000      -0.00000000 </v>
   <v>       0.00000000      -0.00000000      -0.00000000 </v>
   <v>       0.00000000      -0.00000000      -0.00000000 </v>
   <v>       0.00000000      -0.00000000      -0.00000000 </v>
   <v>       0.00000000      -0.00000000      -0.00000000 </v>
   <v>       0.00000000      -0.00000000       0.00000000 </v>
   <v>       0.00000000      -0.00000000       0.00000000 </v>
   <v>       0.00000000      -0.00000000       0.00000000 </v>
   <v>       0.00000000      -0.00000000      -0.00000000 </v>
   <v>       0.00000000      -0.00000000      -0.00000000 </v>
   <v>       0.00000000      -0.00000000       0.00000000 </v>
   <v>       0.00000000      -0.00000000       0.00000000 </v>
   <v>       0.00000000      -0.00000000       0.00000000 </v>
   <v>       0.00000000      -0.00000000      -0.00000000 </v>
   <v>       0.00000000      -0.00000000      -0.00000000 </v>
   <v>       0.00000000      -0.00000000      -0.00000000 </v>
   <v>       0.00000000      -0.00000000      -0.00000000 </v>
   <v>       0.00000000      -0.00000000       0.00000000 </v>
   <v>       0.00000000      -0.00000000      -0.00000000 </v>
   <v>       0.00000000      -0.00000000      -0.00000000 </v>
   <v>       0.00000000      -0.00000000       0.00000000 </v>
   <v>       0.00000000      -0.00000000      -0.00000000 </v>
   <v>       0.00000000      -0.00000000       0.00000000 </v>
   <v>       0.00000000      -0.00000000      -0.00000000 </v>
   <v>       0.00000000      -0.00000000      -0.00000000 </v>
   <v>       0.00000000      -0.00000000      -0.00000000 </v>
   <v>       0.00000000      -0.00000000       0.00000000 </v>
   <v>       0.00000000      -0.00000000       0.00000000 </v>
   <v>       0.00000000      -0.00000000      -0.00000000 </v>
   <v>       0.00000000      -0.00000000      -0.00000000 </v>
   <v>       0.00000000       0.51393072       0.00000000 </v>
   <v>       0.00000000       0.51393072      -0.00000000 </v>
   <v>       0.00000000       0.51393072      -0.00000000 </v>
   <v>       0.00000000       0.51393072      -0.00000000 </v>
   <v>       0.00000000       0.51393072       0.00000000 </v>
   <v>       0.00000000       0.51393072       0.00000000 </v>
   <v>       0.00000000       0.51393072       0.00000000 </v>
   <v>       0.00000000       0.51393072      -0.00000000 </v>
   <v>       0.00000000       0.51393072       0.00000000 </v>
   <v>       0.00000000       0.51393072      -0.00000000 </v>
   <v>       0.00000000       0.51393072       0.00000000 </v>
   <v>       0.00000000       0.51393072       0.00000000 </v>
   <v>       0.00000000       0.51393072       0.00000000 </v>
   <v>       0.00000000       0.51393072      -0.00000000 </v>
   <v>       0.00000000       0.51393072       0.00000000 </v>
   <v>       0.00000000       0.51393072       0.00000000 </v>
   <v>       0.00000000      -0.51393072      -0.00000000 </v>
   <v>       0.00000000      -0.51393072       0.00000000 </v>
   <v>       0.00000000      -0.51393072      -0.00000000 </v>
   <v>       0.00000000      -0.51393072      -0.00000000 </v>
   <v>       0.00000000      -0.51393072      -0.00000000 </v>
   <v>       0.00000000      -0.51393072      -0.00000000 </v>
   <v>       0.00000000      -0.51393072      -0.00000000 </v>
   <v>       0.00000000      -0.51393072      -0.00000000 </v>
   <v>       0.00000000      -0.51393072       0.00000000 </v>
   <v>       0.00000000      -0.51393072      -0.00000000 </v>
   <v>       0.00000000      -0.51393072      -0.00000000 </v>
   <v>       0.00000000      -0.51393072      -0.00000000 </v>
   <v>       0.00000000      -0.51393072      -0.00000000 </v>
   <v>       0.00000000      -0.51393072      -0.00000000 </v>
   <v>       0.00000000      -0.51393072       0.00000000 </v>
   <v>       0.00000000      -0.51393072      -0.00000000 </v>
   <v>      -0.51393072      -0.00000000       0.00000000 </v>
   <v>      -0.51393072      -0.00000000      -0.00000000 </v>
   <v>      -0.51393072      -0.00000000      -0.00000000 </v>
   <v>      -0.51393072      -0.00000000       0.00000000 </v>
   <v>      -0.51393072      -0.00000000       0.00000000 </v>
   <v>      -0.51393072      -0.00000000       0.00000000 </v>
   <v>      -0.51393072      -0.00000000       0.00000000 </v>
   <v>      -0.51393072      -0.00000000       0.00000000 </v>
   <v>       0.51393072      -0.00000000      -0.00000000 </v>
   <v>       0.51393072      -0.00000000      -0.00000000 </v>
   <v>       0.51393072      -0.00000000      -0.00000000 </v>
   <v>       0.51393072      -0.00000000       0.00000000 </v>
   <v>       0.51393072      -0.00000000       0.00000000 </v>
   <v>       0.51393072      -0.00000000      -0.00000000 </v>
   <v>       0.51393072      -0.00000000       0.00000000 </v>
   <v>       0.51393072      -0.00000000       0.00000000 </v>
   <v>      -0.51393072      -0.00000000       0.00000000 </v>
   <v>      -0.51393072      -0.00000000       0.00000000 </v>
   <v>      -0.51393072      -0.00000000      -0.00000000 </v>
   <v>      -0.51393072      -0.00000000       0.00000000 </v>
   <v>      -0.51393072      -0.00000000       0.00000000 </v>
   <v>      -0.51393072      -0.00000000       0.00000000 </v>
   <v>      -0.51393072      -0.00000000       0.00000000 </v>
   <v>      -0.51393072      -0.00000000       0.00000000 </v>
   <v>       0.51393072      -0.00000000      -0.00000000 </v>
   <v>       0.51393072      -0.00000000       0.00000000 </v>
   <v>       0.51393072      -0.00000000      -0.00000000 </v>
   <v>       0.51393072      -0.00000000      -0.00000000 </v>
   <v>       0.51393072      -0.00000000      -0.00000000 </v>
   <v>       0.51393072      -0.00000000       0.00000000 </v>
   <v>       0.51393072      -0.00000000      -0.00000000 </v>
   <v>       0.51393072      -0.00000000       0.00000000 </v>
  </varray>
  <energy>
   <i name="e_fr_energy">   -666.35713526 </i>
   <i name="e_wo_entrp">   -666.35713526 </i>
   <i name="e_0_energy">   -666.35713526 </i>
  </energy>
  <time name="totalsc"> 1602.20 1613.48</time>
  <eigenvalues>
   <array>
    <dimension dim="1">band</dimension>
    <dimension dim="2">kpoint</dimension>
    <dimension dim="3">spin</dimension>
    <field>eigene</field>
    <field>occ</field>
    <set>
     <set comment="spin 1">
      <set comment="kpoint 1">
       <r>  -13.6616    1.0000 </r>
       <r>  -13.6616    1.0000 </r>
       <r>  -13.6616    1.0000 </r>
       <r>  -13.6616    1.0000 </r>
       <r>  -13.6565    1.0000 </r>
       <r>  -13.6565    1.0000 </r>
       <r>  -13.6565    1.0000 </r>
       <r>  -13.6565    1.0000 </r>
       <r>  -13.6558    1.0000 </r>
       <r>  -13.6558    1.0000 </r>
       <r>  -13.6558    1.0000 </r>
       <r>  -13.6558    1.0000 </r>
       <r>  -13.6558    1.0000 </r>
       <r>  -13.6558    1.0000 </r>
       <r>  -13.6558    1.0000 </r>
       <r>  -13.6558    1.0000 </r>
       <r>  -13.6446    1.0000 </r>
       <r>  -13.6446    1.0000 </r>
       <r>  -13.6404    1.0000 </r>
       <r>  -13.6404    1.0000 </r>
       <r>  -13.6404    1.0000 </r>
       <r>  -13.6404    1.0000 </r>
       <r>  -13.6392    1.0000 </r>
       <r>  -13.6392    1.0000 </r>
       <r>  -13.6392    1.0000 </r>
       <r>  -13.6392    1.0000 </r>
       <r>  -13.6363    1.0000 </r>
       <r>  -13.6363    1.0000 </r>
       <r>  -13.6363    1.0000 </r>
       <r>  -13.6363    1.0000 </r>
       <r>  -13.6348    1.0000 </r>
       <r>  -13.6335    1.0000 </r>
       <r>  -13.6335    1.0000 </r>
       <r>  -13.6086    1.0000 </r>
       <r>  -13.6086    1.0000 </r>
       <r>  -13.5898    1.0000 </r>
       <r>  -13.5898    1.0000 </r>
       <r>  -13.5898    1.0000 </r>
       <r>  -13.5898    1.0000 </r>
       <r>  -13.5851    1.0000 </r>
       <r>  -13.5851    1.0000 </r>
       <r>  -13.5851    1.0000 </r>
       <r>  -13.5851    1.0000 </r>
       <r>  -13.5350    1.0000 </r>
       <r>  -13.5350    1.0000 </r>
       <r>  -13.5214    1.0000 </r>
       <r>  -13.5214    1.0000 </r>
       <r>  -13.5214    1.0000 </r>
       <r>  -13.5214    1.0000 </r>
       <r>  -13.5212    1.0000 </r>
       <r>  -13.5212    1.0000 </r>
       <r>  -13.5212    1.0000 </r>
       <r>  -13.5212    1.0000 </r>
       <r>  -13.4583    1.0000 </r>
       <r>  -13.4583    1.0000 </r>
       <r>  -13.4583    1.0000 </r>
       <r>  -13.4583    1.0000 </r>
       <r>  -13.4488    1.0000 </r>
       <r>  -13.4488    1.0000 </r>
       <r>  -13.4488    1.0000 </r>
       <r>  -13.4488    1.0000 </r>
       <r>  -13.4371    1.0000 </r>
       <r>  -13.4371    1.0000 </r>
       <r>  -13.3839    1.0000 </r>
       <r>  -13.3806    1.0000 </r>
       <r>  -13.3806    1.0000 </r>
       <r>  -13.3806    1.0000 </r>
       <r>  -13.3806    1.0000 </r>
       <r>  -13.3769    1.0000 </r>
       <r>  -13.3769    1.0000 </r>
       <r>  -13.3769    1.0000 </r>
       <r>  -13.3769    1.0000 </r>
       <r>  -13.3746    1.0000 </r>
       <r>  -13.3746    1.0000 </r>
       <r>  -13.3746    1.0000 </r>
       <r>  -13.3746    1.0000 </r>
       <r>  -13.3744    1.0000 </r>
       <r>  -13.3744    1.0000 </r>
       <r>  -13.3744    1.0000 </r>
       <r>  -13.3744    1.0000 </r>
       <r>  -13.3597    1.0000 </r>
       <r>  -13.3597    1.0000 </r>
       <r>  -13.3503    1.0000 </r>
       <r>  -13.3503    1.0000 </r>
       <r>  -13.3503    1.0000 </r>
       <r>  -13.3503    1.0000 </r>
       <r>  -13.3499    1.0000 </r>
       <r>  -13.3499    1.0000 </r>
       <r>  -13.3499    1.0000 </r>
       <r>  -13.3499    1.0000 </r>
       <r>  -13.3480    1.0000 </r>
       <r>  -13.3480    1.0000 </r>
       <r>  -13.3480    1.0000 </r>
       <r>  -13.3480    1.0000 </r>
       <r>  -13.3405    1.0000 </r>
       <r>  -13.3405    1.0000 </r>
       <r>  -13.2801    1.0000 </r>
       <r>  -13.2801    1.0000 </r>
       <r>  -13.2784    1.0000 </r>
       <r>  -13.2784    1.0000 </r>
       <r>  -13.2718    1.0000 </r>
       <r>  -13.2691    1.0000 </r>
       <r>  -13.2691    1.0000 </r>
       <r>  -13.2691    1.0000 </r>
       <r>  -13.2691    1.0000 </r>
       <r>  -13.2690    1.0000 </r>
       <r>  -13.2690    1.0000 </r>
       <r>  -13.2690    1.0000 </r>
       <r>  -13.2690    1.0000 </r>
       <r>  -13.2673    1.0000 </r>
       <r>  -13.2673    1.0000 </r>
       <r>  -13.2673    1.0000 </r>
       <r>  -13.2673    1.0000 </r>
       <r>  -13.2671    1.0000 </r>
       <r>  -13.2667    1.0000 </r>
       <r>  -13.2667    1.0000 </r>
       <r>  -13.2667    1.0000 </r>
       <r>  -13.2667    1.0000 </r>
       <r>  -13.2660    1.0000 </r>
       <r>  -13.2660    1.0000 </r>
       <r>  -13.2567    1.0000 </r>
       <r>  -13.2567    1.0000 </r>
       <r>  -13.2567    1.0000 </r>
       <r>  -13.2567    1.0000 </r>
       <r>  -13.2565    1.0000 </r>
       <r>  -13.2565    1.0000 </r>
       <r>  -13.2565    1.0000 </r>
       <r>  -13.2565    1.0000 </r>
       <r>  -13.2545    1.0000 </r>
       <r>  -13.2527    1.0000 </r>
       <r>  -13.2527    1.0000 </r>
       <r>  -13.2507    1.0000 </r>
       <r>  -13.2507    1.0000 </r>
       <r>  -13.2507    1.0000 </r>
       <r>  -13.2507    1.0000 </r>
       <r>  -13.2505    1.0000 </r>
       <r>  -13.2505    1.0000 </r>
       <r>  -13.2505    1.0000 </r>
       <r>  -13.2505    1.0000 </r>
       <r>  -13.2476    1.0000 </r>
       <r>  -13.2476    1.0000 </r>
       <r>  -13.2476    1.0000 </r>
       <r>  -13.2476    1.0000 </r>
       <r>  -13.2475    1.0000 </r>
       <r>  -13.2475    1.0000 </r>
       <r>  -13.2475    1.0000 </r>
       <r>  -13.2475    1.0000 </r>
       <r>  -13.2413    1.0000 </r>
       <r>  -13.2413    1.0000 </r>
       <r>  -13.2413    1.0000 </r>
       <r>  -13.2413    1.0000 </r>
       <r>  -13.2409    1.0000 </r>
       <r>  -13.2409    1.0000 </r>
       <r>  -13.2409    1.0000 </r>
       <r>  -13.2409    1.0000 </r>
       <r>  -13.2389    1.0000 </r>
       <r>  -13.2389    1.0000 </r>
       <r>  -13.2384    1.0000 </r>
       <r>  -13.2348    1.0000 </r>
       <r>  -13.2348    1.0000 </r>
       <r>  -11.9893    1.0000 </r>
       <r>  -11.7752    1.0000 </r>
       <r>  -11.7752    1.0000 </r>
       <r>  -11.3511    1.0000 </r>
       <r>  -11.3511    1.0000 </r>
       <r>  -11.3511    1.0000 </r>
       <r>  -11.3511    1.0000 </r>
       <r>  -11.3229    1.0000 </r>
       <r>  -11.3229    1.0000 </r>
       <r>  -11.3229    1.0000 </r>
       <r>  -11.3229    1.0000 </r>
       <r>  -11.2477    1.0000 </r>
       <r>  -11.2477    1.0000 </r>
       <r>  -10.9711    1.0000 </r>
       <r>  -10.9711    1.0000 </r>
       <r>  -10.9711    1.0000 </r>
       <r>  -10.9711    1.0000 </r>
       <r>  -10.9701    1.0000 </r>
       <r>  -10.9701    1.0000 </r>
       <r>  -10.9701    1.0000 </r>
       <r>  -10.9701    1.0000 </r>
       <r>  -10.9481    1.0000 </r>
       <r>  -10.9481    1.0000 </r>
       <r>  -10.9481    1.0000 </r>
       <r>  -10.9481    1.0000 </r>
       <r>  -10.8070    1.0000 </r>
       <r>  -10.8070    1.0000 </r>
       <r>  -10.8070    1.0000 </r>
       <r>  -10.8070    1.0000 </r>
       <r>  -10.7103    1.0000 </r>
       <r>  -10.7103    1.0000 </r>
       <r>  -10.7103    1.0000 </r>
       <r>  -10.7103    1.0000 </r>
       <r>  -10.6598    1.0000 </r>
       <r>  -10.6598    1.0000 </r>
       <r>  -10.6045    1.0000 </r>
       <r>  -10.6045    1.0000 </r>
       <r>  -10.6045    1.0000 </r>
       <r>  -10.6045    1.0000 </r>
       <r>  -10.6033    1.0000 </r>
       <r>  -10.6033    1.0000 </r>
       <r>  -10.6033    1.0000 </r>
       <r>  -10.6033    1.0000 </r>
       <r>  -10.5212    1.0000 </r>
       <r>  -10.5212    1.0000 </r>
       <r>  -10.5212    1.0000 </r>
       <r>  -10.5212    1.0000 </r>
       <r>  -10.4383    1.0000 </r>
       <r>  -10.4383    1.0000 </r>
       <r>  -10.4383    1.0000 </r>
       <r>  -10.4383    1.0000 </r>
       <r>  -10.3931    1.0000 </r>
       <r>  -10.3931    1.0000 </r>
       <r>  -10.3838    1.0000 </r>
       <r>  -10.3788    1.0000 </r>
       <r>  -10.3788    1.0000 </r>
       <r>  -10.3788    1.0000 </r>
       <r>  -10.3788    1.0000 </r>
       <r>  -10.3644    1.0000 </r>
       <r>  -10.3644    1.0000 </r>
       <r>  -10.3630    1.0000 </r>
       <r>  -10.3630    1.0000 </r>
       <r>  -10.3630    1.0000 </r>
       <r>  -10.3630    1.0000 </r>
       <r>   -3.9202    1.0000 </r>
       <r>   -3.7238    1.0000 </r>
       <r>   -3.7238    1.0000 </r>
       <r>   -3.5950    1.0000 </r>
       <r>   -3.5950    1.0000 </r>
       <r>   -3.5950    1.0000 </r>
       <r>   -3.5950    1.0000 </r>
       <r>   -3.5508    1.0000 </r>
       <r>   -3.5508    1.0000 </r>
       <r>   -3.5508    1.0000 </r>
       <r>   -3.5508    1.0000 </r>
       <r>   -3.4722    1.0000 </r>
       <r>   -3.4722    1.0000 </r>
       <r>   -3.4722    1.0000 </r>
       <r>   -3.4722    1.0000 </r>
       <r>   -3.4436    1.0000 </r>
       <r>   -3.4436    1.0000 </r>
       <r>   -3.4436    1.0000 </r>
       <r>   -3.4436    1.0000 </r>
       <r>   -3.3962    1.0000 </r>
       <r>   -3.3962    1.0000 </r>
       <r>   -3.0298    1.0000 </r>
       <r>   -3.0298    1.0000 </r>
       <r>   -2.9099    1.0000 </r>
       <r>   -2.9099    1.0000 </r>
       <r>   -2.9099    1.0000 </r>
       <r>   -2.9099    1.0000 </r>
       <r>   -2.8627    1.0000 </r>
       <r>   -2.8627    1.0000 </r>
       <r>   -2.8627    1.0000 </r>
       <r>   -2.8627    1.0000 </r>
       <r>   -2.7621    1.0000 </r>
       <r>   -2.2335    1.0000 </r>
       <r>   -2.2335    1.0000 </r>
       <r>   -2.2335    1.0000 </r>
       <r>   -2.2335    1.0000 </r>
       <r>   -2.0587    1.0000 </r>
       <r>   -2.0587    1.0000 </r>
       <r>   -2.0587    1.0000 </r>
       <r>   -2.0587    1.0000 </r>
       <r>   -1.7285    1.0000 </r>
       <r>   -1.7285    1.0000 </r>
       <r>   -1.7285    1.0000 </r>
       <r>   -1.7285    1.0000 </r>
       <r>   -1.6911    1.0000 </r>
       <r>   -1.6911    1.0000 </r>
       <r>   -1.6911    1.0000 </r>
       <r>   -1.6911    1.0000 </r>
       <r>   -1.6726    1.0000 </r>
       <r>   -1.6726    1.0000 </r>
       <r>   -1.6436    1.0000 </r>
       <r>   -1.3945    1.0000 </r>
       <r>   -1.3945    1.0000 </r>
       <r>   -1.3945    1.0000 </r>
       <r>   -1.3945    1.0000 </r>
       <r>   -1.3592    1.0000 </r>
       <r>   -1.3592    1.0000 </r>
       <r>   -1.3592    1.0000 </r>
       <r>   -1.3592    1.0000 </r>
       <r>   -1.2836    1.0000 </r>
       <r>   -1.2498    1.0000 </r>
       <r>   -1.2498    1.0000 </r>
       <r>   -1.2498    1.0000 </r>
       <r>   -1.2498    1.0000 </r>
       <r>   -1.2296    1.0000 </r>
       <r>   -1.2296    1.0000 </r>
       <r>   -1.2207    1.0000 </r>
       <r>   -1.2207    1.0000 </r>
       <r>   -1.2207    1.0000 </r>
       <r>   -1.2207    1.0000 </r>
       <r>   -1.2125    1.0000 </r>
       <r>   -0.9397    1.0000 </r>
       <r>   -0.9397    1.0000 </r>
       <r>   -0.9397    1.0000 </r>
       <r>   -0.9397    1.0000 </r>
       <r>   -0.9277    1.0000 </r>
       <r>   -0.9277    1.0000 </r>
       <r>   -0.8791    1.0000 </r>
       <r>   -0.8791    1.0000 </r>
       <r>   -0.8791    1.0000 </r>
       <r>   -0.8791    1.0000 </r>
       <r>   -0.8536    1.0000 </r>
       <r>   -0.8536    1.0000 </r>
       <r>   -0.8315    1.0000 </r>
       <r>   -0.8315    1.0000 </r>
       <r>   -0.8315    1.0000 </r>
       <r>   -0.8315    1.0000 </r>
       <r>   -0.8163    1.0000 </r>
       <r>   -0.8163    1.0000 </r>
       <r>   -0.8163    1.0000 </r>
       <r>   -0.8163    1.0000 </r>
       <r>   -0.7298    1.0000 </r>
       <r>   -0.7298    1.0000 </r>
       <r>   -0.6487    1.0000 </r>
       <r>   -0.6487    1.0000 </r>
       <r>   -0.6487    1.0000 </r>
       <r>   -0.6487    1.0000 </r>
       <r>   -0.6413    1.0000 </r>
       <r>   -0.6413    1.0000 </r>
       <r>   -0.6413    1.0000 </r>
       <r>   -0.6413    1.0000 </r>
       <r>   -0.6310    1.0000 </r>
       <r>   -0.6310    1.0000 </r>
       <r>   -0.6310    1.0000 </r>
       <r>   -0.6310    1.0000 </r>
       <r>   -0.5937    1.0000 </r>
       <r>   -0.5937    1.0000 </r>
       <r>   -0.5937    1.0000 </r>
       <r>   -0.5937    1.0000 </r>
       <r>   -0.5861    1.0000 </r>
       <r>   -0.5861    1.0000 </r>
       <r>   -0.4429    1.0000 </r>
       <r>   -0.4429    1.0000 </r>
       <r>   -0.4429    1.0000 </r>
       <r>   -0.4429    1.0000 </r>
       <r>   -0.4399    1.0000 </r>
       <r>   -0.4399    1.0000 </r>
       <r>   -0.4399    1.0000 </r>
       <r>   -0.4399    1.0000 </r>
       <r>   -0.4104    1.0000 </r>
       <r>   -0.4104    1.0000 </r>
       <r>   -0.4103    1.0000 </r>
       <r>   -0.4103    1.0000 </r>
       <r>   -0.4060    1.0000 </r>
       <r>   -0.4060    1.0000 </r>
       <r>   -0.3813    1.0000 </r>
       <r>   -0.3813    1.0000 </r>
       <r>   -0.3813    1.0000 </r>
       <r>   -0.3813    1.0000 </r>
       <r>   -0.3762    1.0000 </r>
       <r>   -0.3762    1.0000 </r>
       <r>   -0.3741    1.0000 </r>
       <r>   -0.3741    1.0000 </r>
       <r>   -0.3741    1.0000 </r>
       <r>   -0.3741    1.0000 </r>
       <r>   -0.3734    1.0000 </r>
       <r>   -0.3733    1.0000 </r>
       <r>   -0.3733    1.0000 </r>
       <r>   -0.3733    1.0000 </r>
       <r>   -0.3470    1.0000 </r>
       <r>   -0.3470    1.0000 </r>
       <r>   -0.3470    1.0000 </r>
       <r>   -0.3470    1.0000 </r>
       <r>   -0.3315    1.0000 </r>
       <r>   -0.3315    1.0000 </r>
       <r>   -0.2686    1.0000 </r>
       <r>   -0.2686    1.0000 </r>
       <r>   -0.2175    1.0000 </r>
       <r>   -0.2175    1.0000 </r>
       <r>   -0.2175    1.0000 </r>
       <r>   -0.2175    1.0000 </r>
       <r>   -0.2012    1.0000 </r>
       <r>   -0.2012    1.0000 </r>
       <r>   -0.1929    1.0000 </r>
       <r>   -0.1929    1.0000 </r>
       <r>   -0.1929    1.0000 </r>
       <r>   -0.1929    1.0000 </r>
       <r>   -0.1722    1.0000 </r>
       <r>   -0.1722    1.0000 </r>
       <r>   -0.1722    1.0000 </r>
       <r>   -0.1722    1.0000 </r>
       <r>   -0.1719    1.0000 </r>
       <r>   -0.1320    1.0000 </r>
       <r>   -0.1320    1.0000 </r>
       <r>   -0.1320    1.0000 </r>
       <r>   -0.1320    1.0000 </r>
       <r>   -0.0547    1.0000 </r>
       <r>   -0.0547    1.0000 </r>
       <r>   -0.0380    1.0000 </r>
       <r>   -0.0380    1.0000 </r>
       <r>   -0.0380    1.0000 </r>
       <r>   -0.0380    1.0000 </r>
       <r>   -0.0186    1.0000 </r>
       <r>   -0.0186    1.0000 </r>
       <r>   -0.0186    1.0000 </r>
       <r>   -0.0186    1.0000 </r>
       <r>    0.0411    1.0000 </r>
       <r>    0.0411    1.0000 </r>
       <r>    0.0411    1.0000 </r>
       <r>    0.0411    1.0000 </r>
       <r>    0.0850    1.0000 </r>
       <r>    0.0850    1.0000 </r>
       <r>    0.0850    1.0000 </r>
       <r>    0.0850    1.0000 </r>
       <r>    0.1318    1.0000 </r>
       <r>    0.1318    1.0000 </r>
       <r>    0.1318    1.0000 </r>
       <r>    0.1318    1.0000 </r>
       <r>    0.1429    1.0000 </r>
       <r>    0.1429    1.0000 </r>
       <r>    0.1429    1.0000 </r>
       <r>    0.1429    1.0000 </r>
       <r>    0.6584    1.0000 </r>
       <r>    0.6584    1.0000 </r>
       <r>    0.6906    1.0000 </r>
       <r>    0.7227    1.0000 </r>
       <r>    0.7228    1.0000 </r>
       <r>    0.7434    1.0000 </r>
       <r>    0.7652    1.0000 </r>
       <r>    0.7652    1.0000 </r>
       <r>    0.7652    1.0000 </r>
       <r>    0.7652    1.0000 </r>
       <r>    0.7766    1.0000 </r>
       <r>    0.7767    1.0000 </r>
       <r>    0.7889    1.0000 </r>
       <r>    0.7889    1.0000 </r>
       <r>    0.7889    1.0000 </r>
       <r>    0.7889    1.0000 </r>
       <r>    0.7958    1.0000 </r>
       <r>    0.7963    1.0000 </r>
       <r>    0.7963    1.0000 </r>
       <r>    0.7963    1.0000 </r>
       <r>    0.7963    1.0000 </r>
       <r>    0.7999    1.0000 </r>
       <r>    0.7999    1.0000 </r>
       <r>    0.8000    1.0000 </r>
       <r>    0.8000    1.0000 </r>
       <r>    0.8381    1.0000 </r>
       <r>    0.8382    1.0000 </r>
       <r>    0.8630    1.0000 </r>
       <r>    0.8631    1.0000 </r>
       <r>    0.8631    1.0000 </r>
       <r>    0.8631    1.0000 </r>
       <r>    0.8644    1.0000 </r>
       <r>    0.8644    1.0000 </r>
       <r>    0.8645    1.0000 </r>
       <r>    0.8645    1.0000 </r>
       <r>    0.8991    1.0000 </r>
       <r>    0.8991    1.0000 </r>
       <r>    0.8991    1.0000 </r>
       <r>    0.8991    1.0000 </r>
       <r>    0.9126    1.0000 </r>
       <r>    0.9126    1.0000 </r>
       <r>    0.9167    1.0000 </r>
       <r>    0.9168    1.0000 </r>
       <r>    0.9168    1.0000 </r>
       <r>    0.9168    1.0000 </r>
       <r>    0.9612    1.0000 </r>
       <r>    0.9613    1.0000 </r>
       <r>    1.0722    1.0000 </r>
       <r>    1.0722    1.0000 </r>
       <r>    1.0723    1.0000 </r>
       <r>    1.0723    1.0000 </r>
       <r>    1.1028    1.0000 </r>
       <r>    1.1028    1.0000 </r>
       <r>    1.1028    1.0000 </r>
       <r>    1.1028    1.0000 </r>
       <r>    1.1188    1.0000 </r>
       <r>    1.1652    1.0000 </r>
       <r>    1.1652    1.0000 </r>
       <r>    1.1652    1.0000 </r>
       <r>    1.1653    1.0000 </r>
       <r>    1.2041    1.0000 </r>
       <r>    1.2041    1.0000 </r>
       <r>    1.2041    1.0000 </r>
       <r>    1.2041    1.0000 </r>
       <r>    1.2054    1.0000 </r>
       <r>    1.2054    1.0000 </r>
       <r>    1.2054    1.0000 </r>
       <r>    1.2054    1.0000 </r>
       <r>    1.2124    1.0000 </r>
       <r>    1.2124    1.0000 </r>
       <r>    1.2372    1.0000 </r>
       <r>    1.2372    1.0000 </r>
       <r>    1.2372    1.0000 </r>
       <r>    1.2372    1.0000 </r>
       <r>    1.2704    1.0000 </r>
       <r>    1.2704    1.0000 </r>
       <r>    1.2704    1.0000 </r>
       <r>    1.2704    1.0000 </r>
       <r>    1.2951    1.0000 </r>
       <r>    1.2970    1.0000 </r>
       <r>    1.2970    1.0000 </r>
       <r>    1.4561    1.0000 </r>
       <r>    1.4561    1.0000 </r>
       <r>    1.4562    1.0000 </r>
       <r>    1.4562    1.0000 </r>
       <r>    1.5398    1.0000 </r>
       <r>    1.5398    1.0000 </r>
       <r>    1.5398    1.0000 </r>
       <r>    1.5398    1.0000 </r>
       <r>    1.5838    1.0000 </r>
       <r>    1.5839    1.0000 </r>
       <r>    1.5885    1.0000 </r>
       <r>    1.5885    1.0000 </r>
       <r>    1.5885    1.0000 </r>
       <r>    1.5885    1.0000 </r>
       <r>    1.6671    1.0000 </r>
       <r>    1.6671    1.0000 </r>
       <r>    1.6671    1.0000 </r>
       <r>    1.6672    1.0000 </r>
       <r>    1.7324    1.0000 </r>
       <r>    1.7324    1.0000 </r>
       <r>    1.7324    1.0000 </r>
       <r>    1.7324    1.0000 </r>
       <r>    1.7563    1.0000 </r>
       <r>    1.7563    1.0000 </r>
       <r>    1.7563    1.0000 </r>
       <r>    1.7564    1.0000 </r>
       <r>    1.8217    1.0000 </r>
       <r>    1.8218    1.0000 </r>
       <r>    1.8218    1.0000 </r>
       <r>    1.8218    1.0000 </r>
       <r>    1.8912    1.0000 </r>
       <r>    1.8912    1.0000 </r>
       <r>    1.9322    1.0000 </r>
       <r>    1.9322    1.0000 </r>
       <r>    1.9323    1.0000 </r>
       <r>    1.9323    1.0000 </r>
       <r>    2.0266    1.0000 </r>
       <r>    2.0266    1.0000 </r>
       <r>    2.0266    1.0000 </r>
       <r>    2.0266    1.0000 </r>
       <r>    2.1392    1.0000 </r>
       <r>    2.1392    1.0000 </r>
       <r>    2.2201    1.0000 </r>
       <r>    2.2201    1.0000 </r>
       <r>    2.2355    1.0000 </r>
       <r>    2.2355    1.0000 </r>
       <r>    2.2355    1.0000 </r>
       <r>    2.2355    1.0000 </r>
       <r>    2.2451    1.0000 </r>
       <r>    2.2451    1.0000 </r>
       <r>    2.2451    1.0000 </r>
       <r>    2.2451    1.0000 </r>
       <r>    2.2488    1.0000 </r>
       <r>    2.2488    1.0000 </r>
       <r>    2.2488    1.0000 </r>
       <r>    2.2488    1.0000 </r>
       <r>    2.4115    1.0000 </r>
       <r>    2.4115    1.0000 </r>
       <r>    2.4115    1.0000 </r>
       <r>    2.4115    1.0000 </r>
       <r>    2.4828    1.0000 </r>
       <r>    2.4828    1.0000 </r>
       <r>    2.4828    1.0000 </r>
       <r>    2.4828    1.0000 </r>
       <r>    2.5370    1.0000 </r>
       <r>    2.5370    1.0000 </r>
       <r>    2.5370    1.0000 </r>
       <r>    2.5370    1.0000 </r>
       <r>    2.5812    1.0000 </r>
       <r>    2.5812    1.0000 </r>
       <r>    2.5812    1.0000 </r>
       <r>    2.5812    1.0000 </r>
       <r>    2.7090    1.0000 </r>
       <r>    2.7090    1.0000 </r>
       <r>    2.7090    1.0000 </r>
       <r>    2.7090    1.0000 </r>
       <r>    3.1019    1.0000 </r>
       <r>    3.1019    1.0000 </r>
       <r>    3.1501    1.0000 </r>
       <r>    4.2015    0.0000 </r>
       <r>    5.4584    0.0000 </r>
       <r>    5.4584    0.0000 </r>
       <r>    5.4764    0.0000 </r>
       <r>    5.4764    0.0000 </r>
       <r>    5.4764    0.0000 </r>
       <r>    5.4764    0.0000 </r>
       <r>    5.8236    0.0000 </r>
       <r>    5.8236    0.0000 </r>
       <r>    5.8236    0.0000 </r>
       <r>    5.8236    0.0000 </r>
       <r>    6.0559    0.0000 </r>
       <r>    6.0559    0.0000 </r>
       <r>    6.1055    0.0000 </r>
       <r>    6.2210    0.0000 </r>
       <r>    6.2210    0.0000 </r>
       <r>    6.3329    0.0000 </r>
       <r>    6.3329    0.0000 </r>
       <r>    6.4141    0.0000 </r>
       <r>    6.4141    0.0000 </r>
       <r>    6.4141    0.0000 </r>
       <r>    6.4141    0.0000 </r>
       <r>    6.4694    0.0000 </r>
       <r>    6.4694    0.0000 </r>
       <r>    6.4694    0.0000 </r>
       <r>    6.4694    0.0000 </r>
       <r>    6.5965    0.0000 </r>
       <r>    6.5965    0.0000 </r>
       <r>    6.6425    0.0000 </r>
       <r>    6.8911    0.0000 </r>
       <r>    6.8911    0.0000 </r>
       <r>    6.8911    0.0000 </r>
       <r>    6.8911    0.0000 </r>
       <r>    6.9235    0.0000 </r>
       <r>    6.9235    0.0000 </r>
       <r>    6.9235    0.0000 </r>
       <r>    6.9235    0.0000 </r>
       <r>    6.9378    0.0000 </r>
       <r>    6.9378    0.0000 </r>
       <r>    6.9378    0.0000 </r>
       <r>    6.9378    0.0000 </r>
       <r>    6.9669    0.0000 </r>
       <r>    6.9669    0.0000 </r>
       <r>    6.9669    0.0000 </r>
       <r>    6.9669    0.0000 </r>
       <r>    6.9885    0.0000 </r>
       <r>    6.9885    0.0000 </r>
       <r>    7.3735    0.0000 </r>
       <r>    7.3735    0.0000 </r>
       <r>    7.3736    0.0000 </r>
       <r>    7.3736    0.0000 </r>
       <r>    7.4276    0.0000 </r>
       <r>    7.4276    0.0000 </r>
       <r>    7.4276    0.0000 </r>
       <r>    7.4276    0.0000 </r>
       <r>    7.6728    0.0000 </r>
       <r>    7.6728    0.0000 </r>
       <r>    7.6728    0.0000 </r>
       <r>    7.6728    0.0000 </r>
       <r>    7.7753    0.0000 </r>
       <r>    7.7753    0.0000 </r>
       <r>    8.0149    0.0000 </r>
       <r>    8.0149    0.0000 </r>
       <r>    8.0149    0.0000 </r>
       <r>    8.0149    0.0000 </r>
       <r>    8.2147    0.0000 </r>
       <r>    8.2147    0.0000 </r>
       <r>    8.2147    0.0000 </r>
       <r>    8.2147    0.0000 </r>
       <r>    8.2189    0.0000 </r>
       <r>    8.2189    0.0000 </r>
       <r>    8.2285    0.0000 </r>
       <r>    8.2285    0.0000 </r>
       <r>    8.4266    0.0000 </r>
       <r>    8.4266    0.0000 </r>
       <r>    8.4266    0.0000 </r>
       <r>    8.4266    0.0000 </r>
       <r>    8.4482    0.0000 </r>
       <r>    8.4482    0.0000 </r>
       <r>    8.5397    0.0000 </r>
       <r>    8.5397    0.0000 </r>
       <r>    8.5397    0.0000 </r>
       <r>    8.5397    0.0000 </r>
       <r>    8.6606    0.0000 </r>
       <r>    8.6606    0.0000 </r>
       <r>    8.6606    0.0000 </r>
       <r>    8.6606    0.0000 </r>
       <r>    8.7316    0.0000 </r>
       <r>    8.7316    0.0000 </r>
       <r>    8.8244    0.0000 </r>
       <r>    8.8244    0.0000 </r>
       <r>    8.8244    0.0000 </r>
       <r>    8.8244    0.0000 </r>
       <r>    8.8590    0.0000 </r>
       <r>    8.8591    0.0000 </r>
       <r>    8.8591    0.0000 </r>
       <r>    8.8591    0.0000 </r>
       <r>    8.9504    0.0000 </r>
       <r>    9.0153    0.0000 </r>
       <r>    9.0153    0.0000 </r>
       <r>    9.0154    0.0000 </r>
       <r>    9.0154    0.0000 </r>
       <r>    9.0785    0.0000 </r>
       <r>    9.0786    0.0000 </r>
       <r>    9.0789    0.0000 </r>
       <r>    9.0797    0.0000 </r>
       <r>    9.0893    0.0000 </r>
       <r>    9.0894    0.0000 </r>
       <r>    9.2716    0.0000 </r>
       <r>    9.2723    0.0000 </r>
       <r>    9.2762    0.0000 </r>
       <r>    9.2843    0.0000 </r>
       <r>    9.3458    0.0000 </r>
       <r>    9.3477    0.0000 </r>
       <r>    9.3620    0.0000 </r>
       <r>    9.3718    0.0000 </r>
      </set>
      <set comment="kpoint 2">
       <r>  -13.6584    1.0000 </r>
       <r>  -13.6584    1.0000 </r>
       <r>  -13.6584    1.0000 </r>
       <r>  -13.6584    1.0000 </r>
       <r>  -13.6570    1.0000 </r>
       <r>  -13.6570    1.0000 </r>
       <r>  -13.6570    1.0000 </r>
       <r>  -13.6570    1.0000 </r>
       <r>  -13.6547    1.0000 </r>
       <r>  -13.6547    1.0000 </r>
       <r>  -13.6476    1.0000 </r>
       <r>  -13.6476    1.0000 </r>
       <r>  -13.6476    1.0000 </r>
       <r>  -13.6476    1.0000 </r>
       <r>  -13.6471    1.0000 </r>
       <r>  -13.6471    1.0000 </r>
       <r>  -13.6465    1.0000 </r>
       <r>  -13.6465    1.0000 </r>
       <r>  -13.6465    1.0000 </r>
       <r>  -13.6465    1.0000 </r>
       <r>  -13.6462    1.0000 </r>
       <r>  -13.6462    1.0000 </r>
       <r>  -13.6462    1.0000 </r>
       <r>  -13.6462    1.0000 </r>
       <r>  -13.6411    1.0000 </r>
       <r>  -13.6411    1.0000 </r>
       <r>  -13.6392    1.0000 </r>
       <r>  -13.6392    1.0000 </r>
       <r>  -13.6392    1.0000 </r>
       <r>  -13.6392    1.0000 </r>
       <r>  -13.6331    1.0000 </r>
       <r>  -13.6331    1.0000 </r>
       <r>  -13.6193    1.0000 </r>
       <r>  -13.6193    1.0000 </r>
       <r>  -13.6000    1.0000 </r>
       <r>  -13.6000    1.0000 </r>
       <r>  -13.6000    1.0000 </r>
       <r>  -13.6000    1.0000 </r>
       <r>  -13.5707    1.0000 </r>
       <r>  -13.5707    1.0000 </r>
       <r>  -13.5707    1.0000 </r>
       <r>  -13.5707    1.0000 </r>
       <r>  -13.5661    1.0000 </r>
       <r>  -13.5661    1.0000 </r>
       <r>  -13.5661    1.0000 </r>
       <r>  -13.5661    1.0000 </r>
       <r>  -13.5495    1.0000 </r>
       <r>  -13.5495    1.0000 </r>
       <r>  -13.5123    1.0000 </r>
       <r>  -13.5123    1.0000 </r>
       <r>  -13.4752    1.0000 </r>
       <r>  -13.4752    1.0000 </r>
       <r>  -13.4752    1.0000 </r>
       <r>  -13.4752    1.0000 </r>
       <r>  -13.4684    1.0000 </r>
       <r>  -13.4684    1.0000 </r>
       <r>  -13.4684    1.0000 </r>
       <r>  -13.4684    1.0000 </r>
       <r>  -13.4416    1.0000 </r>
       <r>  -13.4416    1.0000 </r>
       <r>  -13.4416    1.0000 </r>
       <r>  -13.4416    1.0000 </r>
       <r>  -13.3936    1.0000 </r>
       <r>  -13.3936    1.0000 </r>
       <r>  -13.3847    1.0000 </r>
       <r>  -13.3847    1.0000 </r>
       <r>  -13.3797    1.0000 </r>
       <r>  -13.3797    1.0000 </r>
       <r>  -13.3797    1.0000 </r>
       <r>  -13.3797    1.0000 </r>
       <r>  -13.3763    1.0000 </r>
       <r>  -13.3763    1.0000 </r>
       <r>  -13.3763    1.0000 </r>
       <r>  -13.3763    1.0000 </r>
       <r>  -13.3668    1.0000 </r>
       <r>  -13.3668    1.0000 </r>
       <r>  -13.3668    1.0000 </r>
       <r>  -13.3668    1.0000 </r>
       <r>  -13.3622    1.0000 </r>
       <r>  -13.3622    1.0000 </r>
       <r>  -13.3622    1.0000 </r>
       <r>  -13.3622    1.0000 </r>
       <r>  -13.3622    1.0000 </r>
       <r>  -13.3622    1.0000 </r>
       <r>  -13.3622    1.0000 </r>
       <r>  -13.3621    1.0000 </r>
       <r>  -13.3561    1.0000 </r>
       <r>  -13.3561    1.0000 </r>
       <r>  -13.3553    1.0000 </r>
       <r>  -13.3553    1.0000 </r>
       <r>  -13.3500    1.0000 </r>
       <r>  -13.3500    1.0000 </r>
       <r>  -13.3500    1.0000 </r>
       <r>  -13.3500    1.0000 </r>
       <r>  -13.3422    1.0000 </r>
       <r>  -13.3422    1.0000 </r>
       <r>  -13.2763    1.0000 </r>
       <r>  -13.2763    1.0000 </r>
       <r>  -13.2763    1.0000 </r>
       <r>  -13.2763    1.0000 </r>
       <r>  -13.2752    1.0000 </r>
       <r>  -13.2752    1.0000 </r>
       <r>  -13.2740    1.0000 </r>
       <r>  -13.2740    1.0000 </r>
       <r>  -13.2697    1.0000 </r>
       <r>  -13.2697    1.0000 </r>
       <r>  -13.2662    1.0000 </r>
       <r>  -13.2662    1.0000 </r>
       <r>  -13.2651    1.0000 </r>
       <r>  -13.2651    1.0000 </r>
       <r>  -13.2651    1.0000 </r>
       <r>  -13.2651    1.0000 </r>
       <r>  -13.2641    1.0000 </r>
       <r>  -13.2641    1.0000 </r>
       <r>  -13.2641    1.0000 </r>
       <r>  -13.2641    1.0000 </r>
       <r>  -13.2637    1.0000 </r>
       <r>  -13.2637    1.0000 </r>
       <r>  -13.2637    1.0000 </r>
       <r>  -13.2637    1.0000 </r>
       <r>  -13.2635    1.0000 </r>
       <r>  -13.2635    1.0000 </r>
       <r>  -13.2635    1.0000 </r>
       <r>  -13.2635    1.0000 </r>
       <r>  -13.2628    1.0000 </r>
       <r>  -13.2628    1.0000 </r>
       <r>  -13.2628    1.0000 </r>
       <r>  -13.2628    1.0000 </r>
       <r>  -13.2540    1.0000 </r>
       <r>  -13.2540    1.0000 </r>
       <r>  -13.2521    1.0000 </r>
       <r>  -13.2521    1.0000 </r>
       <r>  -13.2521    1.0000 </r>
       <r>  -13.2521    1.0000 </r>
       <r>  -13.2497    1.0000 </r>
       <r>  -13.2497    1.0000 </r>
       <r>  -13.2497    1.0000 </r>
       <r>  -13.2497    1.0000 </r>
       <r>  -13.2497    1.0000 </r>
       <r>  -13.2497    1.0000 </r>
       <r>  -13.2497    1.0000 </r>
       <r>  -13.2497    1.0000 </r>
       <r>  -13.2448    1.0000 </r>
       <r>  -13.2448    1.0000 </r>
       <r>  -13.2448    1.0000 </r>
       <r>  -13.2448    1.0000 </r>
       <r>  -13.2446    1.0000 </r>
       <r>  -13.2446    1.0000 </r>
       <r>  -13.2446    1.0000 </r>
       <r>  -13.2446    1.0000 </r>
       <r>  -13.2417    1.0000 </r>
       <r>  -13.2417    1.0000 </r>
       <r>  -13.2408    1.0000 </r>
       <r>  -13.2408    1.0000 </r>
       <r>  -13.2406    1.0000 </r>
       <r>  -13.2406    1.0000 </r>
       <r>  -13.2377    1.0000 </r>
       <r>  -13.2377    1.0000 </r>
       <r>  -13.2377    1.0000 </r>
       <r>  -13.2377    1.0000 </r>
       <r>  -11.7970    1.0000 </r>
       <r>  -11.7970    1.0000 </r>
       <r>  -11.6088    1.0000 </r>
       <r>  -11.6088    1.0000 </r>
       <r>  -11.6088    1.0000 </r>
       <r>  -11.6088    1.0000 </r>
       <r>  -11.2291    1.0000 </r>
       <r>  -11.2291    1.0000 </r>
       <r>  -11.2291    1.0000 </r>
       <r>  -11.2291    1.0000 </r>
       <r>  -11.2098    1.0000 </r>
       <r>  -11.2098    1.0000 </r>
       <r>  -11.2098    1.0000 </r>
       <r>  -11.2098    1.0000 </r>
       <r>  -11.1728    1.0000 </r>
       <r>  -11.1728    1.0000 </r>
       <r>  -11.1163    1.0000 </r>
       <r>  -11.1163    1.0000 </r>
       <r>  -10.8915    1.0000 </r>
       <r>  -10.8915    1.0000 </r>
       <r>  -10.8915    1.0000 </r>
       <r>  -10.8915    1.0000 </r>
       <r>  -10.8185    1.0000 </r>
       <r>  -10.8185    1.0000 </r>
       <r>  -10.8185    1.0000 </r>
       <r>  -10.8185    1.0000 </r>
       <r>  -10.6737    1.0000 </r>
       <r>  -10.6737    1.0000 </r>
       <r>  -10.6737    1.0000 </r>
       <r>  -10.6737    1.0000 </r>
       <r>  -10.6624    1.0000 </r>
       <r>  -10.6624    1.0000 </r>
       <r>  -10.6624    1.0000 </r>
       <r>  -10.6624    1.0000 </r>
       <r>  -10.6064    1.0000 </r>
       <r>  -10.6064    1.0000 </r>
       <r>  -10.5943    1.0000 </r>
       <r>  -10.5943    1.0000 </r>
       <r>  -10.5943    1.0000 </r>
       <r>  -10.5943    1.0000 </r>
       <r>  -10.5338    1.0000 </r>
       <r>  -10.5338    1.0000 </r>
       <r>  -10.5338    1.0000 </r>
       <r>  -10.5338    1.0000 </r>
       <r>  -10.4900    1.0000 </r>
       <r>  -10.4900    1.0000 </r>
       <r>  -10.4807    1.0000 </r>
       <r>  -10.4807    1.0000 </r>
       <r>  -10.4807    1.0000 </r>
       <r>  -10.4807    1.0000 </r>
       <r>  -10.4710    1.0000 </r>
       <r>  -10.4710    1.0000 </r>
       <r>  -10.4557    1.0000 </r>
       <r>  -10.4557    1.0000 </r>
       <r>  -10.4557    1.0000 </r>
       <r>  -10.4557    1.0000 </r>
       <r>  -10.3940    1.0000 </r>
       <r>  -10.3940    1.0000 </r>
       <r>  -10.3940    1.0000 </r>
       <r>  -10.3940    1.0000 </r>
       <r>  -10.3748    1.0000 </r>
       <r>  -10.3748    1.0000 </r>
       <r>  -10.3695    1.0000 </r>
       <r>  -10.3695    1.0000 </r>
       <r>   -3.7647    1.0000 </r>
       <r>   -3.7647    1.0000 </r>
       <r>   -3.6044    1.0000 </r>
       <r>   -3.6044    1.0000 </r>
       <r>   -3.6044    1.0000 </r>
       <r>   -3.6044    1.0000 </r>
       <r>   -3.5881    1.0000 </r>
       <r>   -3.5881    1.0000 </r>
       <r>   -3.5881    1.0000 </r>
       <r>   -3.5881    1.0000 </r>
       <r>   -3.5633    1.0000 </r>
       <r>   -3.5633    1.0000 </r>
       <r>   -3.5633    1.0000 </r>
       <r>   -3.5633    1.0000 </r>
       <r>   -3.3513    1.0000 </r>
       <r>   -3.3513    1.0000 </r>
       <r>   -3.2476    1.0000 </r>
       <r>   -3.2476    1.0000 </r>
       <r>   -3.2476    1.0000 </r>
       <r>   -3.2476    1.0000 </r>
       <r>   -3.1779    1.0000 </r>
       <r>   -3.1779    1.0000 </r>
       <r>   -3.1779    1.0000 </r>
       <r>   -3.1779    1.0000 </r>
       <r>   -3.1682    1.0000 </r>
       <r>   -3.1682    1.0000 </r>
       <r>   -2.9527    1.0000 </r>
       <r>   -2.9527    1.0000 </r>
       <r>   -2.9527    1.0000 </r>
       <r>   -2.9527    1.0000 </r>
       <r>   -2.8259    1.0000 </r>
       <r>   -2.8259    1.0000 </r>
       <r>   -2.1186    1.0000 </r>
       <r>   -2.1186    1.0000 </r>
       <r>   -2.1186    1.0000 </r>
       <r>   -2.1186    1.0000 </r>
       <r>   -1.9549    1.0000 </r>
       <r>   -1.9549    1.0000 </r>
       <r>   -1.9549    1.0000 </r>
       <r>   -1.9549    1.0000 </r>
       <r>   -1.7704    1.0000 </r>
       <r>   -1.7704    1.0000 </r>
       <r>   -1.7621    1.0000 </r>
       <r>   -1.7621    1.0000 </r>
       <r>   -1.7621    1.0000 </r>
       <r>   -1.7621    1.0000 </r>
       <r>   -1.7132    1.0000 </r>
       <r>   -1.7132    1.0000 </r>
       <r>   -1.7132    1.0000 </r>
       <r>   -1.7132    1.0000 </r>
       <r>   -1.6760    1.0000 </r>
       <r>   -1.6760    1.0000 </r>
       <r>   -1.6760    1.0000 </r>
       <r>   -1.6760    1.0000 </r>
       <r>   -1.4589    1.0000 </r>
       <r>   -1.4589    1.0000 </r>
       <r>   -1.3405    1.0000 </r>
       <r>   -1.3405    1.0000 </r>
       <r>   -1.3381    1.0000 </r>
       <r>   -1.3381    1.0000 </r>
       <r>   -1.3381    1.0000 </r>
       <r>   -1.3381    1.0000 </r>
       <r>   -1.2974    1.0000 </r>
       <r>   -1.2974    1.0000 </r>
       <r>   -1.2878    1.0000 </r>
       <r>   -1.2878    1.0000 </r>
       <r>   -1.2878    1.0000 </r>
       <r>   -1.2878    1.0000 </r>
       <r>   -1.2575    1.0000 </r>
       <r>   -1.2575    1.0000 </r>
       <r>   -0.9778    1.0000 </r>
       <r>   -0.9778    1.0000 </r>
       <r>   -0.9710    1.0000 </r>
       <r>   -0.9710    1.0000 </r>
       <r>   -0.9710    1.0000 </r>
       <r>   -0.9710    1.0000 </r>
       <r>   -0.9607    1.0000 </r>
       <r>   -0.9607    1.0000 </r>
       <r>   -0.9607    1.0000 </r>
       <r>   -0.9607    1.0000 </r>
       <r>   -0.7514    1.0000 </r>
       <r>   -0.7514    1.0000 </r>
       <r>   -0.7514    1.0000 </r>
       <r>   -0.7514    1.0000 </r>
       <r>   -0.7253    1.0000 </r>
       <r>   -0.7253    1.0000 </r>
       <r>   -0.7108    1.0000 </r>
       <r>   -0.7108    1.0000 </r>
       <r>   -0.7108    1.0000 </r>
       <r>   -0.7108    1.0000 </r>
       <r>   -0.6522    1.0000 </r>
       <r>   -0.6522    1.0000 </r>
       <r>   -0.6178    1.0000 </r>
       <r>   -0.6178    1.0000 </r>
       <r>   -0.6178    1.0000 </r>
       <r>   -0.6178    1.0000 </r>
       <r>   -0.6143    1.0000 </r>
       <r>   -0.6143    1.0000 </r>
       <r>   -0.6103    1.0000 </r>
       <r>   -0.6103    1.0000 </r>
       <r>   -0.6103    1.0000 </r>
       <r>   -0.6103    1.0000 </r>
       <r>   -0.5287    1.0000 </r>
       <r>   -0.5287    1.0000 </r>
       <r>   -0.5148    1.0000 </r>
       <r>   -0.5148    1.0000 </r>
       <r>   -0.4911    1.0000 </r>
       <r>   -0.4911    1.0000 </r>
       <r>   -0.4911    1.0000 </r>
       <r>   -0.4911    1.0000 </r>
       <r>   -0.4894    1.0000 </r>
       <r>   -0.4894    1.0000 </r>
       <r>   -0.4894    1.0000 </r>
       <r>   -0.4894    1.0000 </r>
       <r>   -0.4793    1.0000 </r>
       <r>   -0.4793    1.0000 </r>
       <r>   -0.4736    1.0000 </r>
       <r>   -0.4736    1.0000 </r>
       <r>   -0.4649    1.0000 </r>
       <r>   -0.4649    1.0000 </r>
       <r>   -0.4649    1.0000 </r>
       <r>   -0.4649    1.0000 </r>
       <r>   -0.4492    1.0000 </r>
       <r>   -0.4492    1.0000 </r>
       <r>   -0.4492    1.0000 </r>
       <r>   -0.4492    1.0000 </r>
       <r>   -0.4067    1.0000 </r>
       <r>   -0.4066    1.0000 </r>
       <r>   -0.4066    1.0000 </r>
       <r>   -0.4066    1.0000 </r>
       <r>   -0.3920    1.0000 </r>
       <r>   -0.3920    1.0000 </r>
       <r>   -0.3920    1.0000 </r>
       <r>   -0.3920    1.0000 </r>
       <r>   -0.3267    1.0000 </r>
       <r>   -0.3267    1.0000 </r>
       <r>   -0.3147    1.0000 </r>
       <r>   -0.3147    1.0000 </r>
       <r>   -0.3146    1.0000 </r>
       <r>   -0.3146    1.0000 </r>
       <r>   -0.2529    1.0000 </r>
       <r>   -0.2529    1.0000 </r>
       <r>   -0.2529    1.0000 </r>
       <r>   -0.2529    1.0000 </r>
       <r>   -0.2354    1.0000 </r>
       <r>   -0.2354    1.0000 </r>
       <r>   -0.2354    1.0000 </r>
       <r>   -0.2354    1.0000 </r>
       <r>   -0.2285    1.0000 </r>
       <r>   -0.2285    1.0000 </r>
       <r>   -0.2159    1.0000 </r>
       <r>   -0.2159    1.0000 </r>
       <r>   -0.2027    1.0000 </r>
       <r>   -0.2027    1.0000 </r>
       <r>   -0.1810    1.0000 </r>
       <r>   -0.1810    1.0000 </r>
       <r>   -0.1810    1.0000 </r>
       <r>   -0.1810    1.0000 </r>
       <r>   -0.1499    1.0000 </r>
       <r>   -0.1499    1.0000 </r>
       <r>   -0.1499    1.0000 </r>
       <r>   -0.1499    1.0000 </r>
       <r>   -0.1172    1.0000 </r>
       <r>   -0.1172    1.0000 </r>
       <r>   -0.0938    1.0000 </r>
       <r>   -0.0938    1.0000 </r>
       <r>   -0.0938    1.0000 </r>
       <r>   -0.0938    1.0000 </r>
       <r>    0.0096    1.0000 </r>
       <r>    0.0096    1.0000 </r>
       <r>    0.0096    1.0000 </r>
       <r>    0.0096    1.0000 </r>
       <r>    0.0359    1.0000 </r>
       <r>    0.0359    1.0000 </r>
       <r>    0.0359    1.0000 </r>
       <r>    0.0359    1.0000 </r>
       <r>    0.0476    1.0000 </r>
       <r>    0.0476    1.0000 </r>
       <r>    0.0476    1.0000 </r>
       <r>    0.0476    1.0000 </r>
       <r>    0.0553    1.0000 </r>
       <r>    0.0553    1.0000 </r>
       <r>    0.1001    1.0000 </r>
       <r>    0.1001    1.0000 </r>
       <r>    0.1002    1.0000 </r>
       <r>    0.1002    1.0000 </r>
       <r>    0.1002    1.0000 </r>
       <r>    0.1002    1.0000 </r>
       <r>    0.1305    1.0000 </r>
       <r>    0.1305    1.0000 </r>
       <r>    0.1306    1.0000 </r>
       <r>    0.1306    1.0000 </r>
       <r>    0.7410    1.0000 </r>
       <r>    0.7410    1.0000 </r>
       <r>    0.7647    1.0000 </r>
       <r>    0.7647    1.0000 </r>
       <r>    0.7647    1.0000 </r>
       <r>    0.7647    1.0000 </r>
       <r>    0.7673    1.0000 </r>
       <r>    0.7673    1.0000 </r>
       <r>    0.7899    1.0000 </r>
       <r>    0.7899    1.0000 </r>
       <r>    0.7899    1.0000 </r>
       <r>    0.7899    1.0000 </r>
       <r>    0.8015    1.0000 </r>
       <r>    0.8015    1.0000 </r>
       <r>    0.8015    1.0000 </r>
       <r>    0.8015    1.0000 </r>
       <r>    0.8188    1.0000 </r>
       <r>    0.8188    1.0000 </r>
       <r>    0.8188    1.0000 </r>
       <r>    0.8188    1.0000 </r>
       <r>    0.8245    1.0000 </r>
       <r>    0.8245    1.0000 </r>
       <r>    0.8245    1.0000 </r>
       <r>    0.8245    1.0000 </r>
       <r>    0.8448    1.0000 </r>
       <r>    0.8448    1.0000 </r>
       <r>    0.8448    1.0000 </r>
       <r>    0.8448    1.0000 </r>
       <r>    0.8501    1.0000 </r>
       <r>    0.8502    1.0000 </r>
       <r>    0.8545    1.0000 </r>
       <r>    0.8545    1.0000 </r>
       <r>    0.8594    1.0000 </r>
       <r>    0.8594    1.0000 </r>
       <r>    0.8970    1.0000 </r>
       <r>    0.8970    1.0000 </r>
       <r>    0.9056    1.0000 </r>
       <r>    0.9056    1.0000 </r>
       <r>    0.9057    1.0000 </r>
       <r>    0.9057    1.0000 </r>
       <r>    0.9349    1.0000 </r>
       <r>    0.9349    1.0000 </r>
       <r>    0.9349    1.0000 </r>
       <r>    0.9349    1.0000 </r>
       <r>    0.9463    1.0000 </r>
       <r>    0.9463    1.0000 </r>
       <r>    0.9463    1.0000 </r>
       <r>    0.9463    1.0000 </r>
       <r>    0.9772    1.0000 </r>
       <r>    0.9772    1.0000 </r>
       <r>    0.9772    1.0000 </r>
       <r>    0.9772    1.0000 </r>
       <r>    0.9961    1.0000 </r>
       <r>    0.9961    1.0000 </r>
       <r>    1.0134    1.0000 </r>
       <r>    1.0134    1.0000 </r>
       <r>    1.1075    1.0000 </r>
       <r>    1.1076    1.0000 </r>
       <r>    1.1076    1.0000 </r>
       <r>    1.1076    1.0000 </r>
       <r>    1.1245    1.0000 </r>
       <r>    1.1245    1.0000 </r>
       <r>    1.1425    1.0000 </r>
       <r>    1.1425    1.0000 </r>
       <r>    1.1426    1.0000 </r>
       <r>    1.1426    1.0000 </r>
       <r>    1.2447    1.0000 </r>
       <r>    1.2447    1.0000 </r>
       <r>    1.3007    1.0000 </r>
       <r>    1.3007    1.0000 </r>
       <r>    1.3007    1.0000 </r>
       <r>    1.3007    1.0000 </r>
       <r>    1.3566    1.0000 </r>
       <r>    1.3566    1.0000 </r>
       <r>    1.3566    1.0000 </r>
       <r>    1.3566    1.0000 </r>
       <r>    1.4851    1.0000 </r>
       <r>    1.4851    1.0000 </r>
       <r>    1.4864    1.0000 </r>
       <r>    1.4864    1.0000 </r>
       <r>    1.4864    1.0000 </r>
       <r>    1.4864    1.0000 </r>
       <r>    1.4938    1.0000 </r>
       <r>    1.4938    1.0000 </r>
       <r>    1.5381    1.0000 </r>
       <r>    1.5381    1.0000 </r>
       <r>    1.5532    1.0000 </r>
       <r>    1.5532    1.0000 </r>
       <r>    1.5532    1.0000 </r>
       <r>    1.5532    1.0000 </r>
       <r>    1.5829    1.0000 </r>
       <r>    1.5829    1.0000 </r>
       <r>    1.5978    1.0000 </r>
       <r>    1.5978    1.0000 </r>
       <r>    1.5979    1.0000 </r>
       <r>    1.5979    1.0000 </r>
       <r>    1.6106    1.0000 </r>
       <r>    1.6106    1.0000 </r>
       <r>    1.6106    1.0000 </r>
       <r>    1.6106    1.0000 </r>
       <r>    1.6129    1.0000 </r>
       <r>    1.6129    1.0000 </r>
       <r>    1.6129    1.0000 </r>
       <r>    1.6129    1.0000 </r>
       <r>    1.7647    1.0000 </r>
       <r>    1.7647    1.0000 </r>
       <r>    1.7648    1.0000 </r>
       <r>    1.7648    1.0000 </r>
       <r>    1.8543    1.0000 </r>
       <r>    1.8543    1.0000 </r>
       <r>    1.8543    1.0000 </r>
       <r>    1.8543    1.0000 </r>
       <r>    1.9077    1.0000 </r>
       <r>    1.9077    1.0000 </r>
       <r>    1.9092    1.0000 </r>
       <r>    1.9092    1.0000 </r>
       <r>    1.9092    1.0000 </r>
       <r>    1.9092    1.0000 </r>
       <r>    2.0040    1.0000 </r>
       <r>    2.0040    1.0000 </r>
       <r>    2.0040    1.0000 </r>
       <r>    2.0040    1.0000 </r>
       <r>    2.1128    1.0000 </r>
       <r>    2.1128    1.0000 </r>
       <r>    2.1129    1.0000 </r>
       <r>    2.1129    1.0000 </r>
       <r>    2.1651    1.0000 </r>
       <r>    2.1651    1.0000 </r>
       <r>    2.2494    1.0000 </r>
       <r>    2.2494    1.0000 </r>
       <r>    2.3433    1.0000 </r>
       <r>    2.3433    1.0000 </r>
       <r>    2.3433    1.0000 </r>
       <r>    2.3433    1.0000 </r>
       <r>    2.3460    1.0000 </r>
       <r>    2.3460    1.0000 </r>
       <r>    2.3460    1.0000 </r>
       <r>    2.3460    1.0000 </r>
       <r>    2.3505    1.0000 </r>
       <r>    2.3505    1.0000 </r>
       <r>    2.3505    1.0000 </r>
       <r>    2.3505    1.0000 </r>
       <r>    2.3616    1.0000 </r>
       <r>    2.3616    1.0000 </r>
       <r>    2.3616    1.0000 </r>
       <r>    2.3616    1.0000 </r>
       <r>    2.3617    1.0000 </r>
       <r>    2.3617    1.0000 </r>
       <r>    2.5028    1.0000 </r>
       <r>    2.5028    1.0000 </r>
       <r>    2.5028    1.0000 </r>
       <r>    2.5028    1.0000 </r>
       <r>    2.7135    1.0000 </r>
       <r>    2.7135    1.0000 </r>
       <r>    2.7810    1.0000 </r>
       <r>    2.7810    1.0000 </r>
       <r>    2.9358    1.0000 </r>
       <r>    2.9358    1.0000 </r>
       <r>    2.9358    1.0000 </r>
       <r>    2.9358    1.0000 </r>
       <r>    5.5040    0.0000 </r>
       <r>    5.5040    0.0000 </r>
       <r>    5.7752    0.0000 </r>
       <r>    5.7752    0.0000 </r>
       <r>    5.7752    0.0000 </r>
       <r>    5.7752    0.0000 </r>
       <r>    5.9544    0.0000 </r>
       <r>    5.9544    0.0000 </r>
       <r>    5.9544    0.0000 </r>
       <r>    5.9544    0.0000 </r>
       <r>    6.0438    0.0000 </r>
       <r>    6.0438    0.0000 </r>
       <r>    6.0438    0.0000 </r>
       <r>    6.0438    0.0000 </r>
       <r>    6.2013    0.0000 </r>
       <r>    6.2013    0.0000 </r>
       <r>    6.2013    0.0000 </r>
       <r>    6.2013    0.0000 </r>
       <r>    6.2340    0.0000 </r>
       <r>    6.2340    0.0000 </r>
       <r>    6.4126    0.0000 </r>
       <r>    6.4126    0.0000 </r>
       <r>    6.4189    0.0000 </r>
       <r>    6.4189    0.0000 </r>
       <r>    6.4189    0.0000 </r>
       <r>    6.4189    0.0000 </r>
       <r>    6.5642    0.0000 </r>
       <r>    6.5642    0.0000 </r>
       <r>    6.6083    0.0000 </r>
       <r>    6.6083    0.0000 </r>
       <r>    6.6083    0.0000 </r>
       <r>    6.6083    0.0000 </r>
       <r>    6.8829    0.0000 </r>
       <r>    6.8829    0.0000 </r>
       <r>    6.9548    0.0000 </r>
       <r>    6.9548    0.0000 </r>
       <r>    7.0230    0.0000 </r>
       <r>    7.0230    0.0000 </r>
       <r>    7.1221    0.0000 </r>
       <r>    7.1221    0.0000 </r>
       <r>    7.1221    0.0000 </r>
       <r>    7.1221    0.0000 </r>
       <r>    7.2338    0.0000 </r>
       <r>    7.2338    0.0000 </r>
       <r>    7.2338    0.0000 </r>
       <r>    7.2338    0.0000 </r>
       <r>    7.2980    0.0000 </r>
       <r>    7.2980    0.0000 </r>
       <r>    7.2980    0.0000 </r>
       <r>    7.2980    0.0000 </r>
       <r>    7.4046    0.0000 </r>
       <r>    7.4046    0.0000 </r>
       <r>    7.4046    0.0000 </r>
       <r>    7.4046    0.0000 </r>
       <r>    7.6416    0.0000 </r>
       <r>    7.6416    0.0000 </r>
       <r>    7.6416    0.0000 </r>
       <r>    7.6416    0.0000 </r>
       <r>    7.7904    0.0000 </r>
       <r>    7.7904    0.0000 </r>
       <r>    7.8464    0.0000 </r>
       <r>    7.8464    0.0000 </r>
       <r>    7.8746    0.0000 </r>
       <r>    7.8746    0.0000 </r>
       <r>    8.0181    0.0000 </r>
       <r>    8.0181    0.0000 </r>
       <r>    8.0181    0.0000 </r>
       <r>    8.0181    0.0000 </r>
       <r>    8.0891    0.0000 </r>
       <r>    8.0891    0.0000 </r>
       <r>    8.0891    0.0000 </r>
       <r>    8.0891    0.0000 </r>
       <r>    8.1802    0.0000 </r>
       <r>    8.1802    0.0000 </r>
       <r>    8.1918    0.0000 </r>
       <r>    8.1918    0.0000 </r>
       <r>    8.2206    0.0000 </r>
       <r>    8.2206    0.0000 </r>
       <r>    8.2207    0.0000 </r>
       <r>    8.2207    0.0000 </r>
       <r>    8.4148    0.0000 </r>
       <r>    8.4148    0.0000 </r>
       <r>    8.4148    0.0000 </r>
       <r>    8.4148    0.0000 </r>
       <r>    8.4557    0.0000 </r>
       <r>    8.4557    0.0000 </r>
       <r>    8.4557    0.0000 </r>
       <r>    8.4557    0.0000 </r>
       <r>    8.5747    0.0000 </r>
       <r>    8.5747    0.0000 </r>
       <r>    8.7552    0.0000 </r>
       <r>    8.7552    0.0000 </r>
       <r>    8.7552    0.0000 </r>
       <r>    8.7552    0.0000 </r>
       <r>    8.8211    0.0000 </r>
       <r>    8.8211    0.0000 </r>
       <r>    8.8211    0.0000 </r>
       <r>    8.8211    0.0000 </r>
       <r>    8.8511    0.0000 </r>
       <r>    8.8511    0.0000 </r>
       <r>    8.8750    0.0000 </r>
       <r>    8.8750    0.0000 </r>
       <r>    8.8750    0.0000 </r>
       <r>    8.8750    0.0000 </r>
       <r>    9.0076    0.0000 </r>
       <r>    9.0076    0.0000 </r>
       <r>    9.0077    0.0000 </r>
       <r>    9.0078    0.0000 </r>
       <r>    9.0788    0.0000 </r>
       <r>    9.0789    0.0000 </r>
       <r>    9.0792    0.0000 </r>
       <r>    9.0795    0.0000 </r>
       <r>    9.2596    0.0000 </r>
       <r>    9.2621    0.0000 </r>
       <r>    9.2648    0.0000 </r>
       <r>    9.2969    0.0000 </r>
      </set>
      <set comment="kpoint 3">
       <r>  -13.6519    1.0000 </r>
       <r>  -13.6519    1.0000 </r>
       <r>  -13.6519    1.0000 </r>
       <r>  -13.6519    1.0000 </r>
       <r>  -13.6519    1.0000 </r>
       <r>  -13.6519    1.0000 </r>
       <r>  -13.6519    1.0000 </r>
       <r>  -13.6519    1.0000 </r>
       <r>  -13.6517    1.0000 </r>
       <r>  -13.6517    1.0000 </r>
       <r>  -13.6517    1.0000 </r>
       <r>  -13.6517    1.0000 </r>
       <r>  -13.6517    1.0000 </r>
       <r>  -13.6517    1.0000 </r>
       <r>  -13.6517    1.0000 </r>
       <r>  -13.6517    1.0000 </r>
       <r>  -13.6482    1.0000 </r>
       <r>  -13.6482    1.0000 </r>
       <r>  -13.6482    1.0000 </r>
       <r>  -13.6482    1.0000 </r>
       <r>  -13.6443    1.0000 </r>
       <r>  -13.6443    1.0000 </r>
       <r>  -13.6443    1.0000 </r>
       <r>  -13.6443    1.0000 </r>
       <r>  -13.6443    1.0000 </r>
       <r>  -13.6443    1.0000 </r>
       <r>  -13.6443    1.0000 </r>
       <r>  -13.6443    1.0000 </r>
       <r>  -13.6435    1.0000 </r>
       <r>  -13.6435    1.0000 </r>
       <r>  -13.6435    1.0000 </r>
       <r>  -13.6435    1.0000 </r>
       <r>  -13.6043    1.0000 </r>
       <r>  -13.6043    1.0000 </r>
       <r>  -13.6043    1.0000 </r>
       <r>  -13.6043    1.0000 </r>
       <r>  -13.5878    1.0000 </r>
       <r>  -13.5878    1.0000 </r>
       <r>  -13.5878    1.0000 </r>
       <r>  -13.5878    1.0000 </r>
       <r>  -13.5878    1.0000 </r>
       <r>  -13.5878    1.0000 </r>
       <r>  -13.5878    1.0000 </r>
       <r>  -13.5878    1.0000 </r>
       <r>  -13.5275    1.0000 </r>
       <r>  -13.5275    1.0000 </r>
       <r>  -13.5275    1.0000 </r>
       <r>  -13.5275    1.0000 </r>
       <r>  -13.5275    1.0000 </r>
       <r>  -13.5275    1.0000 </r>
       <r>  -13.5275    1.0000 </r>
       <r>  -13.5275    1.0000 </r>
       <r>  -13.4518    1.0000 </r>
       <r>  -13.4518    1.0000 </r>
       <r>  -13.4518    1.0000 </r>
       <r>  -13.4518    1.0000 </r>
       <r>  -13.4518    1.0000 </r>
       <r>  -13.4518    1.0000 </r>
       <r>  -13.4518    1.0000 </r>
       <r>  -13.4518    1.0000 </r>
       <r>  -13.4177    1.0000 </r>
       <r>  -13.4177    1.0000 </r>
       <r>  -13.4177    1.0000 </r>
       <r>  -13.4177    1.0000 </r>
       <r>  -13.3796    1.0000 </r>
       <r>  -13.3796    1.0000 </r>
       <r>  -13.3796    1.0000 </r>
       <r>  -13.3795    1.0000 </r>
       <r>  -13.3715    1.0000 </r>
       <r>  -13.3715    1.0000 </r>
       <r>  -13.3715    1.0000 </r>
       <r>  -13.3715    1.0000 </r>
       <r>  -13.3715    1.0000 </r>
       <r>  -13.3715    1.0000 </r>
       <r>  -13.3715    1.0000 </r>
       <r>  -13.3715    1.0000 </r>
       <r>  -13.3653    1.0000 </r>
       <r>  -13.3653    1.0000 </r>
       <r>  -13.3653    1.0000 </r>
       <r>  -13.3653    1.0000 </r>
       <r>  -13.3594    1.0000 </r>
       <r>  -13.3594    1.0000 </r>
       <r>  -13.3594    1.0000 </r>
       <r>  -13.3594    1.0000 </r>
       <r>  -13.3594    1.0000 </r>
       <r>  -13.3594    1.0000 </r>
       <r>  -13.3594    1.0000 </r>
       <r>  -13.3594    1.0000 </r>
       <r>  -13.3575    1.0000 </r>
       <r>  -13.3575    1.0000 </r>
       <r>  -13.3575    1.0000 </r>
       <r>  -13.3575    1.0000 </r>
       <r>  -13.3575    1.0000 </r>
       <r>  -13.3575    1.0000 </r>
       <r>  -13.3575    1.0000 </r>
       <r>  -13.3575    1.0000 </r>
       <r>  -13.2709    1.0000 </r>
       <r>  -13.2709    1.0000 </r>
       <r>  -13.2709    1.0000 </r>
       <r>  -13.2709    1.0000 </r>
       <r>  -13.2709    1.0000 </r>
       <r>  -13.2709    1.0000 </r>
       <r>  -13.2709    1.0000 </r>
       <r>  -13.2709    1.0000 </r>
       <r>  -13.2694    1.0000 </r>
       <r>  -13.2694    1.0000 </r>
       <r>  -13.2694    1.0000 </r>
       <r>  -13.2694    1.0000 </r>
       <r>  -13.2694    1.0000 </r>
       <r>  -13.2694    1.0000 </r>
       <r>  -13.2694    1.0000 </r>
       <r>  -13.2694    1.0000 </r>
       <r>  -13.2656    1.0000 </r>
       <r>  -13.2656    1.0000 </r>
       <r>  -13.2656    1.0000 </r>
       <r>  -13.2656    1.0000 </r>
       <r>  -13.2616    1.0000 </r>
       <r>  -13.2616    1.0000 </r>
       <r>  -13.2616    1.0000 </r>
       <r>  -13.2616    1.0000 </r>
       <r>  -13.2614    1.0000 </r>
       <r>  -13.2614    1.0000 </r>
       <r>  -13.2614    1.0000 </r>
       <r>  -13.2614    1.0000 </r>
       <r>  -13.2614    1.0000 </r>
       <r>  -13.2614    1.0000 </r>
       <r>  -13.2614    1.0000 </r>
       <r>  -13.2614    1.0000 </r>
       <r>  -13.2543    1.0000 </r>
       <r>  -13.2543    1.0000 </r>
       <r>  -13.2543    1.0000 </r>
       <r>  -13.2543    1.0000 </r>
       <r>  -13.2517    1.0000 </r>
       <r>  -13.2517    1.0000 </r>
       <r>  -13.2517    1.0000 </r>
       <r>  -13.2517    1.0000 </r>
       <r>  -13.2517    1.0000 </r>
       <r>  -13.2517    1.0000 </r>
       <r>  -13.2517    1.0000 </r>
       <r>  -13.2517    1.0000 </r>
       <r>  -13.2423    1.0000 </r>
       <r>  -13.2423    1.0000 </r>
       <r>  -13.2423    1.0000 </r>
       <r>  -13.2423    1.0000 </r>
       <r>  -13.2423    1.0000 </r>
       <r>  -13.2423    1.0000 </r>
       <r>  -13.2423    1.0000 </r>
       <r>  -13.2423    1.0000 </r>
       <r>  -13.2413    1.0000 </r>
       <r>  -13.2413    1.0000 </r>
       <r>  -13.2413    1.0000 </r>
       <r>  -13.2413    1.0000 </r>
       <r>  -13.2392    1.0000 </r>
       <r>  -13.2392    1.0000 </r>
       <r>  -13.2392    1.0000 </r>
       <r>  -13.2392    1.0000 </r>
       <r>  -13.2392    1.0000 </r>
       <r>  -13.2392    1.0000 </r>
       <r>  -13.2392    1.0000 </r>
       <r>  -13.2392    1.0000 </r>
       <r>  -11.6289    1.0000 </r>
       <r>  -11.6289    1.0000 </r>
       <r>  -11.6289    1.0000 </r>
       <r>  -11.6289    1.0000 </r>
       <r>  -11.4651    1.0000 </r>
       <r>  -11.4651    1.0000 </r>
       <r>  -11.4651    1.0000 </r>
       <r>  -11.4651    1.0000 </r>
       <r>  -11.4651    1.0000 </r>
       <r>  -11.4651    1.0000 </r>
       <r>  -11.4651    1.0000 </r>
       <r>  -11.4651    1.0000 </r>
       <r>  -11.0685    1.0000 </r>
       <r>  -11.0685    1.0000 </r>
       <r>  -11.0685    1.0000 </r>
       <r>  -11.0685    1.0000 </r>
       <r>  -11.0685    1.0000 </r>
       <r>  -11.0685    1.0000 </r>
       <r>  -11.0685    1.0000 </r>
       <r>  -11.0685    1.0000 </r>
       <r>  -10.6882    1.0000 </r>
       <r>  -10.6882    1.0000 </r>
       <r>  -10.6882    1.0000 </r>
       <r>  -10.6882    1.0000 </r>
       <r>  -10.6882    1.0000 </r>
       <r>  -10.6882    1.0000 </r>
       <r>  -10.6882    1.0000 </r>
       <r>  -10.6882    1.0000 </r>
       <r>  -10.5890    1.0000 </r>
       <r>  -10.5890    1.0000 </r>
       <r>  -10.5890    1.0000 </r>
       <r>  -10.5890    1.0000 </r>
       <r>  -10.5601    1.0000 </r>
       <r>  -10.5601    1.0000 </r>
       <r>  -10.5601    1.0000 </r>
       <r>  -10.5601    1.0000 </r>
       <r>  -10.5601    1.0000 </r>
       <r>  -10.5601    1.0000 </r>
       <r>  -10.5601    1.0000 </r>
       <r>  -10.5601    1.0000 </r>
       <r>  -10.5518    1.0000 </r>
       <r>  -10.5518    1.0000 </r>
       <r>  -10.5518    1.0000 </r>
       <r>  -10.5518    1.0000 </r>
       <r>  -10.5518    1.0000 </r>
       <r>  -10.5518    1.0000 </r>
       <r>  -10.5518    1.0000 </r>
       <r>  -10.5518    1.0000 </r>
       <r>  -10.5357    1.0000 </r>
       <r>  -10.5357    1.0000 </r>
       <r>  -10.5357    1.0000 </r>
       <r>  -10.5357    1.0000 </r>
       <r>  -10.4949    1.0000 </r>
       <r>  -10.4949    1.0000 </r>
       <r>  -10.4949    1.0000 </r>
       <r>  -10.4949    1.0000 </r>
       <r>  -10.4949    1.0000 </r>
       <r>  -10.4949    1.0000 </r>
       <r>  -10.4949    1.0000 </r>
       <r>  -10.4949    1.0000 </r>
       <r>  -10.3896    1.0000 </r>
       <r>  -10.3896    1.0000 </r>
       <r>  -10.3896    1.0000 </r>
       <r>  -10.3896    1.0000 </r>
       <r>   -3.7278    1.0000 </r>
       <r>   -3.7278    1.0000 </r>
       <r>   -3.7278    1.0000 </r>
       <r>   -3.7278    1.0000 </r>
       <r>   -3.5954    1.0000 </r>
       <r>   -3.5954    1.0000 </r>
       <r>   -3.5954    1.0000 </r>
       <r>   -3.5954    1.0000 </r>
       <r>   -3.5954    1.0000 </r>
       <r>   -3.5954    1.0000 </r>
       <r>   -3.5954    1.0000 </r>
       <r>   -3.5954    1.0000 </r>
       <r>   -3.2862    1.0000 </r>
       <r>   -3.2862    1.0000 </r>
       <r>   -3.2862    1.0000 </r>
       <r>   -3.2862    1.0000 </r>
       <r>   -3.2862    1.0000 </r>
       <r>   -3.2862    1.0000 </r>
       <r>   -3.2862    1.0000 </r>
       <r>   -3.2862    1.0000 </r>
       <r>   -3.0791    1.0000 </r>
       <r>   -3.0791    1.0000 </r>
       <r>   -3.0791    1.0000 </r>
       <r>   -3.0791    1.0000 </r>
       <r>   -3.0791    1.0000 </r>
       <r>   -3.0791    1.0000 </r>
       <r>   -3.0791    1.0000 </r>
       <r>   -3.0791    1.0000 </r>
       <r>   -3.0717    1.0000 </r>
       <r>   -3.0717    1.0000 </r>
       <r>   -3.0717    1.0000 </r>
       <r>   -3.0717    1.0000 </r>
       <r>   -1.9806    1.0000 </r>
       <r>   -1.9806    1.0000 </r>
       <r>   -1.9806    1.0000 </r>
       <r>   -1.9806    1.0000 </r>
       <r>   -1.9806    1.0000 </r>
       <r>   -1.9806    1.0000 </r>
       <r>   -1.9806    1.0000 </r>
       <r>   -1.9806    1.0000 </r>
       <r>   -1.9309    1.0000 </r>
       <r>   -1.9309    1.0000 </r>
       <r>   -1.9309    1.0000 </r>
       <r>   -1.9309    1.0000 </r>
       <r>   -1.7390    1.0000 </r>
       <r>   -1.7390    1.0000 </r>
       <r>   -1.7390    1.0000 </r>
       <r>   -1.7390    1.0000 </r>
       <r>   -1.7390    1.0000 </r>
       <r>   -1.7390    1.0000 </r>
       <r>   -1.7390    1.0000 </r>
       <r>   -1.7390    1.0000 </r>
       <r>   -1.3855    1.0000 </r>
       <r>   -1.3855    1.0000 </r>
       <r>   -1.3855    1.0000 </r>
       <r>   -1.3855    1.0000 </r>
       <r>   -1.3855    1.0000 </r>
       <r>   -1.3855    1.0000 </r>
       <r>   -1.3855    1.0000 </r>
       <r>   -1.3855    1.0000 </r>
       <r>   -1.3435    1.0000 </r>
       <r>   -1.3435    1.0000 </r>
       <r>   -1.3435    1.0000 </r>
       <r>   -1.3435    1.0000 </r>
       <r>   -1.3143    1.0000 </r>
       <r>   -1.3143    1.0000 </r>
       <r>   -1.3143    1.0000 </r>
       <r>   -1.3143    1.0000 </r>
       <r>   -0.8605    1.0000 </r>
       <r>   -0.8605    1.0000 </r>
       <r>   -0.8605    1.0000 </r>
       <r>   -0.8605    1.0000 </r>
       <r>   -0.8605    1.0000 </r>
       <r>   -0.8605    1.0000 </r>
       <r>   -0.8605    1.0000 </r>
       <r>   -0.8605    1.0000 </r>
       <r>   -0.8576    1.0000 </r>
       <r>   -0.8576    1.0000 </r>
       <r>   -0.8576    1.0000 </r>
       <r>   -0.8576    1.0000 </r>
       <r>   -0.8576    1.0000 </r>
       <r>   -0.8576    1.0000 </r>
       <r>   -0.8576    1.0000 </r>
       <r>   -0.8576    1.0000 </r>
       <r>   -0.8009    1.0000 </r>
       <r>   -0.8009    1.0000 </r>
       <r>   -0.8009    1.0000 </r>
       <r>   -0.8009    1.0000 </r>
       <r>   -0.7103    1.0000 </r>
       <r>   -0.7103    1.0000 </r>
       <r>   -0.7103    1.0000 </r>
       <r>   -0.7103    1.0000 </r>
       <r>   -0.7103    1.0000 </r>
       <r>   -0.7103    1.0000 </r>
       <r>   -0.7103    1.0000 </r>
       <r>   -0.7103    1.0000 </r>
       <r>   -0.6937    1.0000 </r>
       <r>   -0.6937    1.0000 </r>
       <r>   -0.6937    1.0000 </r>
       <r>   -0.6937    1.0000 </r>
       <r>   -0.6937    1.0000 </r>
       <r>   -0.6937    1.0000 </r>
       <r>   -0.6937    1.0000 </r>
       <r>   -0.6937    1.0000 </r>
       <r>   -0.5689    1.0000 </r>
       <r>   -0.5689    1.0000 </r>
       <r>   -0.5688    1.0000 </r>
       <r>   -0.5688    1.0000 </r>
       <r>   -0.4864    1.0000 </r>
       <r>   -0.4864    1.0000 </r>
       <r>   -0.4864    1.0000 </r>
       <r>   -0.4864    1.0000 </r>
       <r>   -0.4864    1.0000 </r>
       <r>   -0.4864    1.0000 </r>
       <r>   -0.4864    1.0000 </r>
       <r>   -0.4864    1.0000 </r>
       <r>   -0.4235    1.0000 </r>
       <r>   -0.4235    1.0000 </r>
       <r>   -0.4235    1.0000 </r>
       <r>   -0.4235    1.0000 </r>
       <r>   -0.4235    1.0000 </r>
       <r>   -0.4235    1.0000 </r>
       <r>   -0.4235    1.0000 </r>
       <r>   -0.4235    1.0000 </r>
       <r>   -0.4095    1.0000 </r>
       <r>   -0.4095    1.0000 </r>
       <r>   -0.4095    1.0000 </r>
       <r>   -0.4095    1.0000 </r>
       <r>   -0.3982    1.0000 </r>
       <r>   -0.3982    1.0000 </r>
       <r>   -0.3982    1.0000 </r>
       <r>   -0.3982    1.0000 </r>
       <r>   -0.2968    1.0000 </r>
       <r>   -0.2968    1.0000 </r>
       <r>   -0.2968    1.0000 </r>
       <r>   -0.2968    1.0000 </r>
       <r>   -0.2968    1.0000 </r>
       <r>   -0.2968    1.0000 </r>
       <r>   -0.2968    1.0000 </r>
       <r>   -0.2968    1.0000 </r>
       <r>   -0.2904    1.0000 </r>
       <r>   -0.2904    1.0000 </r>
       <r>   -0.2904    1.0000 </r>
       <r>   -0.2904    1.0000 </r>
       <r>   -0.2904    1.0000 </r>
       <r>   -0.2904    1.0000 </r>
       <r>   -0.2904    1.0000 </r>
       <r>   -0.2904    1.0000 </r>
       <r>   -0.2120    1.0000 </r>
       <r>   -0.2120    1.0000 </r>
       <r>   -0.2120    1.0000 </r>
       <r>   -0.2120    1.0000 </r>
       <r>   -0.2120    1.0000 </r>
       <r>   -0.2120    1.0000 </r>
       <r>   -0.2120    1.0000 </r>
       <r>   -0.2120    1.0000 </r>
       <r>   -0.1911    1.0000 </r>
       <r>   -0.1911    1.0000 </r>
       <r>   -0.1911    1.0000 </r>
       <r>   -0.1911    1.0000 </r>
       <r>   -0.0520    1.0000 </r>
       <r>   -0.0520    1.0000 </r>
       <r>   -0.0520    1.0000 </r>
       <r>   -0.0520    1.0000 </r>
       <r>   -0.0383    1.0000 </r>
       <r>   -0.0383    1.0000 </r>
       <r>   -0.0383    1.0000 </r>
       <r>   -0.0383    1.0000 </r>
       <r>   -0.0383    1.0000 </r>
       <r>   -0.0383    1.0000 </r>
       <r>   -0.0383    1.0000 </r>
       <r>   -0.0383    1.0000 </r>
       <r>   -0.0362    1.0000 </r>
       <r>   -0.0362    1.0000 </r>
       <r>   -0.0362    1.0000 </r>
       <r>   -0.0362    1.0000 </r>
       <r>   -0.0362    1.0000 </r>
       <r>   -0.0362    1.0000 </r>
       <r>   -0.0361    1.0000 </r>
       <r>   -0.0361    1.0000 </r>
       <r>    0.0619    1.0000 </r>
       <r>    0.0619    1.0000 </r>
       <r>    0.0619    1.0000 </r>
       <r>    0.0619    1.0000 </r>
       <r>    0.0619    1.0000 </r>
       <r>    0.0619    1.0000 </r>
       <r>    0.0619    1.0000 </r>
       <r>    0.0619    1.0000 </r>
       <r>    0.2015    1.0000 </r>
       <r>    0.2015    1.0000 </r>
       <r>    0.2015    1.0000 </r>
       <r>    0.2015    1.0000 </r>
       <r>    0.7576    1.0000 </r>
       <r>    0.7576    1.0000 </r>
       <r>    0.7576    1.0000 </r>
       <r>    0.7576    1.0000 </r>
       <r>    0.7597    1.0000 </r>
       <r>    0.7598    1.0000 </r>
       <r>    0.7598    1.0000 </r>
       <r>    0.7598    1.0000 </r>
       <r>    0.7598    1.0000 </r>
       <r>    0.7598    1.0000 </r>
       <r>    0.7598    1.0000 </r>
       <r>    0.7598    1.0000 </r>
       <r>    0.8114    1.0000 </r>
       <r>    0.8114    1.0000 </r>
       <r>    0.8114    1.0000 </r>
       <r>    0.8114    1.0000 </r>
       <r>    0.8115    1.0000 </r>
       <r>    0.8115    1.0000 </r>
       <r>    0.8115    1.0000 </r>
       <r>    0.8115    1.0000 </r>
       <r>    0.8640    1.0000 </r>
       <r>    0.8640    1.0000 </r>
       <r>    0.8640    1.0000 </r>
       <r>    0.8640    1.0000 </r>
       <r>    0.8640    1.0000 </r>
       <r>    0.8640    1.0000 </r>
       <r>    0.8640    1.0000 </r>
       <r>    0.8640    1.0000 </r>
       <r>    0.8744    1.0000 </r>
       <r>    0.8744    1.0000 </r>
       <r>    0.8744    1.0000 </r>
       <r>    0.8744    1.0000 </r>
       <r>    0.9608    1.0000 </r>
       <r>    0.9608    1.0000 </r>
       <r>    0.9608    1.0000 </r>
       <r>    0.9608    1.0000 </r>
       <r>    0.9811    1.0000 </r>
       <r>    0.9811    1.0000 </r>
       <r>    0.9811    1.0000 </r>
       <r>    0.9811    1.0000 </r>
       <r>    0.9811    1.0000 </r>
       <r>    0.9811    1.0000 </r>
       <r>    0.9811    1.0000 </r>
       <r>    0.9811    1.0000 </r>
       <r>    1.0202    1.0000 </r>
       <r>    1.0202    1.0000 </r>
       <r>    1.0203    1.0000 </r>
       <r>    1.0203    1.0000 </r>
       <r>    1.0203    1.0000 </r>
       <r>    1.0203    1.0000 </r>
       <r>    1.0203    1.0000 </r>
       <r>    1.0203    1.0000 </r>
       <r>    1.0320    1.0000 </r>
       <r>    1.0320    1.0000 </r>
       <r>    1.0320    1.0000 </r>
       <r>    1.0320    1.0000 </r>
       <r>    1.0514    1.0000 </r>
       <r>    1.0514    1.0000 </r>
       <r>    1.0514    1.0000 </r>
       <r>    1.0514    1.0000 </r>
       <r>    1.0514    1.0000 </r>
       <r>    1.0514    1.0000 </r>
       <r>    1.0514    1.0000 </r>
       <r>    1.0514    1.0000 </r>
       <r>    1.2733    1.0000 </r>
       <r>    1.2733    1.0000 </r>
       <r>    1.2733    1.0000 </r>
       <r>    1.2733    1.0000 </r>
       <r>    1.2800    1.0000 </r>
       <r>    1.2800    1.0000 </r>
       <r>    1.2800    1.0000 </r>
       <r>    1.2800    1.0000 </r>
       <r>    1.2800    1.0000 </r>
       <r>    1.2800    1.0000 </r>
       <r>    1.2800    1.0000 </r>
       <r>    1.2800    1.0000 </r>
       <r>    1.3785    1.0000 </r>
       <r>    1.3786    1.0000 </r>
       <r>    1.3786    1.0000 </r>
       <r>    1.3786    1.0000 </r>
       <r>    1.3786    1.0000 </r>
       <r>    1.3786    1.0000 </r>
       <r>    1.3786    1.0000 </r>
       <r>    1.3786    1.0000 </r>
       <r>    1.4684    1.0000 </r>
       <r>    1.4684    1.0000 </r>
       <r>    1.4684    1.0000 </r>
       <r>    1.4684    1.0000 </r>
       <r>    1.4684    1.0000 </r>
       <r>    1.4684    1.0000 </r>
       <r>    1.4684    1.0000 </r>
       <r>    1.4684    1.0000 </r>
       <r>    1.6025    1.0000 </r>
       <r>    1.6025    1.0000 </r>
       <r>    1.6025    1.0000 </r>
       <r>    1.6025    1.0000 </r>
       <r>    1.6025    1.0000 </r>
       <r>    1.6025    1.0000 </r>
       <r>    1.6025    1.0000 </r>
       <r>    1.6025    1.0000 </r>
       <r>    1.6437    1.0000 </r>
       <r>    1.6437    1.0000 </r>
       <r>    1.6437    1.0000 </r>
       <r>    1.6437    1.0000 </r>
       <r>    1.6676    1.0000 </r>
       <r>    1.6676    1.0000 </r>
       <r>    1.6676    1.0000 </r>
       <r>    1.6676    1.0000 </r>
       <r>    1.7264    1.0000 </r>
       <r>    1.7264    1.0000 </r>
       <r>    1.7264    1.0000 </r>
       <r>    1.7264    1.0000 </r>
       <r>    1.8936    1.0000 </r>
       <r>    1.8936    1.0000 </r>
       <r>    1.8936    1.0000 </r>
       <r>    1.8936    1.0000 </r>
       <r>    1.8936    1.0000 </r>
       <r>    1.8936    1.0000 </r>
       <r>    1.8936    1.0000 </r>
       <r>    1.8936    1.0000 </r>
       <r>    2.1009    1.0000 </r>
       <r>    2.1009    1.0000 </r>
       <r>    2.1009    1.0000 </r>
       <r>    2.1009    1.0000 </r>
       <r>    2.1009    1.0000 </r>
       <r>    2.1009    1.0000 </r>
       <r>    2.1009    1.0000 </r>
       <r>    2.1009    1.0000 </r>
       <r>    2.1964    1.0000 </r>
       <r>    2.1964    1.0000 </r>
       <r>    2.1965    1.0000 </r>
       <r>    2.1965    1.0000 </r>
       <r>    2.1965    1.0000 </r>
       <r>    2.1965    1.0000 </r>
       <r>    2.1965    1.0000 </r>
       <r>    2.1965    1.0000 </r>
       <r>    2.4528    1.0000 </r>
       <r>    2.4528    1.0000 </r>
       <r>    2.4528    1.0000 </r>
       <r>    2.4528    1.0000 </r>
       <r>    2.6756    1.0000 </r>
       <r>    2.6756    1.0000 </r>
       <r>    2.6756    1.0000 </r>
       <r>    2.6756    1.0000 </r>
       <r>    2.6756    1.0000 </r>
       <r>    2.6756    1.0000 </r>
       <r>    2.6756    1.0000 </r>
       <r>    2.6756    1.0000 </r>
       <r>    2.6970    1.0000 </r>
       <r>    2.6970    1.0000 </r>
       <r>    2.6970    1.0000 </r>
       <r>    2.6970    1.0000 </r>
       <r>    2.6970    1.0000 </r>
       <r>    2.6970    1.0000 </r>
       <r>    2.6970    1.0000 </r>
       <r>    2.6970    1.0000 </r>
       <r>    2.9364    1.0000 </r>
       <r>    2.9364    1.0000 </r>
       <r>    2.9365    1.0000 </r>
       <r>    2.9365    1.0000 </r>
       <r>    5.5666    0.0000 </r>
       <r>    5.5666    0.0000 </r>
       <r>    5.5666    0.0000 </r>
       <r>    5.5667    0.0000 </r>
       <r>    5.5667    0.0000 </r>
       <r>    5.5667    0.0000 </r>
       <r>    5.5667    0.0000 </r>
       <r>    5.5667    0.0000 </r>
       <r>    5.7657    0.0000 </r>
       <r>    5.7657    0.0000 </r>
       <r>    5.7657    0.0000 </r>
       <r>    5.7657    0.0000 </r>
       <r>    6.1764    0.0000 </r>
       <r>    6.1764    0.0000 </r>
       <r>    6.1764    0.0000 </r>
       <r>    6.1764    0.0000 </r>
       <r>    6.1764    0.0000 </r>
       <r>    6.1764    0.0000 </r>
       <r>    6.1764    0.0000 </r>
       <r>    6.1764    0.0000 </r>
       <r>    6.4450    0.0000 </r>
       <r>    6.4450    0.0000 </r>
       <r>    6.4450    0.0000 </r>
       <r>    6.4450    0.0000 </r>
       <r>    6.4450    0.0000 </r>
       <r>    6.4450    0.0000 </r>
       <r>    6.4450    0.0000 </r>
       <r>    6.4450    0.0000 </r>
       <r>    6.5382    0.0000 </r>
       <r>    6.5382    0.0000 </r>
       <r>    6.5382    0.0000 </r>
       <r>    6.5382    0.0000 </r>
       <r>    7.0604    0.0000 </r>
       <r>    7.0604    0.0000 </r>
       <r>    7.0604    0.0000 </r>
       <r>    7.0604    0.0000 </r>
       <r>    7.0604    0.0000 </r>
       <r>    7.0604    0.0000 </r>
       <r>    7.0604    0.0000 </r>
       <r>    7.0604    0.0000 </r>
       <r>    7.1628    0.0000 </r>
       <r>    7.1628    0.0000 </r>
       <r>    7.1628    0.0000 </r>
       <r>    7.1628    0.0000 </r>
       <r>    7.1628    0.0000 </r>
       <r>    7.1628    0.0000 </r>
       <r>    7.1628    0.0000 </r>
       <r>    7.1628    0.0000 </r>
       <r>    7.2738    0.0000 </r>
       <r>    7.2738    0.0000 </r>
       <r>    7.2738    0.0000 </r>
       <r>    7.2738    0.0000 </r>
       <r>    7.2738    0.0000 </r>
       <r>    7.2738    0.0000 </r>
       <r>    7.2738    0.0000 </r>
       <r>    7.2738    0.0000 </r>
       <r>    7.3926    0.0000 </r>
       <r>    7.3926    0.0000 </r>
       <r>    7.3926    0.0000 </r>
       <r>    7.3926    0.0000 </r>
       <r>    7.7598    0.0000 </r>
       <r>    7.7598    0.0000 </r>
       <r>    7.7598    0.0000 </r>
       <r>    7.7598    0.0000 </r>
       <r>    8.1290    0.0000 </r>
       <r>    8.1290    0.0000 </r>
       <r>    8.1290    0.0000 </r>
       <r>    8.1290    0.0000 </r>
       <r>    8.1290    0.0000 </r>
       <r>    8.1290    0.0000 </r>
       <r>    8.1290    0.0000 </r>
       <r>    8.1290    0.0000 </r>
       <r>    8.2085    0.0000 </r>
       <r>    8.2085    0.0000 </r>
       <r>    8.2085    0.0000 </r>
       <r>    8.2085    0.0000 </r>
       <r>    8.2085    0.0000 </r>
       <r>    8.2085    0.0000 </r>
       <r>    8.2085    0.0000 </r>
       <r>    8.2085    0.0000 </r>
       <r>    8.3674    0.0000 </r>
       <r>    8.3674    0.0000 </r>
       <r>    8.3674    0.0000 </r>
       <r>    8.3674    0.0000 </r>
       <r>    8.5320    0.0000 </r>
       <r>    8.5320    0.0000 </r>
       <r>    8.5320    0.0000 </r>
       <r>    8.5320    0.0000 </r>
       <r>    8.9031    0.0000 </r>
       <r>    8.9031    0.0000 </r>
       <r>    8.9031    0.0000 </r>
       <r>    8.9031    0.0000 </r>
       <r>    8.9166    0.0000 </r>
       <r>    8.9166    0.0000 </r>
       <r>    8.9166    0.0000 </r>
       <r>    8.9166    0.0000 </r>
       <r>    8.9166    0.0000 </r>
       <r>    8.9166    0.0000 </r>
       <r>    8.9166    0.0000 </r>
       <r>    8.9166    0.0000 </r>
       <r>    9.1178    0.0000 </r>
       <r>    9.1178    0.0000 </r>
       <r>    9.1178    0.0000 </r>
       <r>    9.1178    0.0000 </r>
       <r>    9.1178    0.0000 </r>
       <r>    9.1178    0.0000 </r>
       <r>    9.1178    0.0000 </r>
       <r>    9.1178    0.0000 </r>
       <r>    9.4109    0.0000 </r>
       <r>    9.4110    0.0000 </r>
       <r>    9.4115    0.0000 </r>
       <r>    9.4132    0.0000 </r>
       <r>    9.5958    0.0000 </r>
       <r>    9.5996    0.0000 </r>
       <r>    9.6104    0.0000 </r>
       <r>    9.6401    0.0000 </r>
      </set>
      <set comment="kpoint 4">
       <r>  -13.6594    1.0000 </r>
       <r>  -13.6594    1.0000 </r>
       <r>  -13.6594    1.0000 </r>
       <r>  -13.6594    1.0000 </r>
       <r>  -13.6594    1.0000 </r>
       <r>  -13.6594    1.0000 </r>
       <r>  -13.6594    1.0000 </r>
       <r>  -13.6594    1.0000 </r>
       <r>  -13.6557    1.0000 </r>
       <r>  -13.6557    1.0000 </r>
       <r>  -13.6557    1.0000 </r>
       <r>  -13.6557    1.0000 </r>
       <r>  -13.6557    1.0000 </r>
       <r>  -13.6557    1.0000 </r>
       <r>  -13.6557    1.0000 </r>
       <r>  -13.6557    1.0000 </r>
       <r>  -13.6431    1.0000 </r>
       <r>  -13.6431    1.0000 </r>
       <r>  -13.6431    1.0000 </r>
       <r>  -13.6431    1.0000 </r>
       <r>  -13.6380    1.0000 </r>
       <r>  -13.6380    1.0000 </r>
       <r>  -13.6380    1.0000 </r>
       <r>  -13.6380    1.0000 </r>
       <r>  -13.6380    1.0000 </r>
       <r>  -13.6380    1.0000 </r>
       <r>  -13.6380    1.0000 </r>
       <r>  -13.6380    1.0000 </r>
       <r>  -13.6353    1.0000 </r>
       <r>  -13.6353    1.0000 </r>
       <r>  -13.6353    1.0000 </r>
       <r>  -13.6353    1.0000 </r>
       <r>  -13.6280    1.0000 </r>
       <r>  -13.6280    1.0000 </r>
       <r>  -13.5875    1.0000 </r>
       <r>  -13.5875    1.0000 </r>
       <r>  -13.5875    1.0000 </r>
       <r>  -13.5875    1.0000 </r>
       <r>  -13.5875    1.0000 </r>
       <r>  -13.5875    1.0000 </r>
       <r>  -13.5875    1.0000 </r>
       <r>  -13.5875    1.0000 </r>
       <r>  -13.5768    1.0000 </r>
       <r>  -13.5768    1.0000 </r>
       <r>  -13.5214    1.0000 </r>
       <r>  -13.5214    1.0000 </r>
       <r>  -13.5214    1.0000 </r>
       <r>  -13.5214    1.0000 </r>
       <r>  -13.5214    1.0000 </r>
       <r>  -13.5214    1.0000 </r>
       <r>  -13.5214    1.0000 </r>
       <r>  -13.5214    1.0000 </r>
       <r>  -13.4860    1.0000 </r>
       <r>  -13.4860    1.0000 </r>
       <r>  -13.4537    1.0000 </r>
       <r>  -13.4537    1.0000 </r>
       <r>  -13.4537    1.0000 </r>
       <r>  -13.4537    1.0000 </r>
       <r>  -13.4537    1.0000 </r>
       <r>  -13.4537    1.0000 </r>
       <r>  -13.4537    1.0000 </r>
       <r>  -13.4537    1.0000 </r>
       <r>  -13.3986    1.0000 </r>
       <r>  -13.3986    1.0000 </r>
       <r>  -13.3785    1.0000 </r>
       <r>  -13.3785    1.0000 </r>
       <r>  -13.3785    1.0000 </r>
       <r>  -13.3785    1.0000 </r>
       <r>  -13.3785    1.0000 </r>
       <r>  -13.3785    1.0000 </r>
       <r>  -13.3785    1.0000 </r>
       <r>  -13.3785    1.0000 </r>
       <r>  -13.3745    1.0000 </r>
       <r>  -13.3745    1.0000 </r>
       <r>  -13.3745    1.0000 </r>
       <r>  -13.3745    1.0000 </r>
       <r>  -13.3745    1.0000 </r>
       <r>  -13.3745    1.0000 </r>
       <r>  -13.3745    1.0000 </r>
       <r>  -13.3745    1.0000 </r>
       <r>  -13.3569    1.0000 </r>
       <r>  -13.3569    1.0000 </r>
       <r>  -13.3569    1.0000 </r>
       <r>  -13.3569    1.0000 </r>
       <r>  -13.3493    1.0000 </r>
       <r>  -13.3493    1.0000 </r>
       <r>  -13.3493    1.0000 </r>
       <r>  -13.3493    1.0000 </r>
       <r>  -13.3493    1.0000 </r>
       <r>  -13.3493    1.0000 </r>
       <r>  -13.3493    1.0000 </r>
       <r>  -13.3493    1.0000 </r>
       <r>  -13.3433    1.0000 </r>
       <r>  -13.3433    1.0000 </r>
       <r>  -13.3433    1.0000 </r>
       <r>  -13.3433    1.0000 </r>
       <r>  -13.2810    1.0000 </r>
       <r>  -13.2810    1.0000 </r>
       <r>  -13.2765    1.0000 </r>
       <r>  -13.2765    1.0000 </r>
       <r>  -13.2733    1.0000 </r>
       <r>  -13.2733    1.0000 </r>
       <r>  -13.2692    1.0000 </r>
       <r>  -13.2692    1.0000 </r>
       <r>  -13.2692    1.0000 </r>
       <r>  -13.2692    1.0000 </r>
       <r>  -13.2692    1.0000 </r>
       <r>  -13.2692    1.0000 </r>
       <r>  -13.2692    1.0000 </r>
       <r>  -13.2692    1.0000 </r>
       <r>  -13.2672    1.0000 </r>
       <r>  -13.2672    1.0000 </r>
       <r>  -13.2672    1.0000 </r>
       <r>  -13.2672    1.0000 </r>
       <r>  -13.2672    1.0000 </r>
       <r>  -13.2672    1.0000 </r>
       <r>  -13.2672    1.0000 </r>
       <r>  -13.2672    1.0000 </r>
       <r>  -13.2612    1.0000 </r>
       <r>  -13.2612    1.0000 </r>
       <r>  -13.2587    1.0000 </r>
       <r>  -13.2587    1.0000 </r>
       <r>  -13.2567    1.0000 </r>
       <r>  -13.2567    1.0000 </r>
       <r>  -13.2567    1.0000 </r>
       <r>  -13.2567    1.0000 </r>
       <r>  -13.2567    1.0000 </r>
       <r>  -13.2567    1.0000 </r>
       <r>  -13.2567    1.0000 </r>
       <r>  -13.2567    1.0000 </r>
       <r>  -13.2507    1.0000 </r>
       <r>  -13.2507    1.0000 </r>
       <r>  -13.2507    1.0000 </r>
       <r>  -13.2507    1.0000 </r>
       <r>  -13.2507    1.0000 </r>
       <r>  -13.2507    1.0000 </r>
       <r>  -13.2507    1.0000 </r>
       <r>  -13.2507    1.0000 </r>
       <r>  -13.2477    1.0000 </r>
       <r>  -13.2477    1.0000 </r>
       <r>  -13.2477    1.0000 </r>
       <r>  -13.2477    1.0000 </r>
       <r>  -13.2477    1.0000 </r>
       <r>  -13.2477    1.0000 </r>
       <r>  -13.2477    1.0000 </r>
       <r>  -13.2477    1.0000 </r>
       <r>  -13.2451    1.0000 </r>
       <r>  -13.2451    1.0000 </r>
       <r>  -13.2412    1.0000 </r>
       <r>  -13.2412    1.0000 </r>
       <r>  -13.2412    1.0000 </r>
       <r>  -13.2412    1.0000 </r>
       <r>  -13.2412    1.0000 </r>
       <r>  -13.2412    1.0000 </r>
       <r>  -13.2412    1.0000 </r>
       <r>  -13.2412    1.0000 </r>
       <r>  -13.2367    1.0000 </r>
       <r>  -13.2367    1.0000 </r>
       <r>  -13.2356    1.0000 </r>
       <r>  -13.2356    1.0000 </r>
       <r>  -11.9332    1.0000 </r>
       <r>  -11.9332    1.0000 </r>
       <r>  -11.5369    1.0000 </r>
       <r>  -11.5369    1.0000 </r>
       <r>  -11.3376    1.0000 </r>
       <r>  -11.3376    1.0000 </r>
       <r>  -11.3376    1.0000 </r>
       <r>  -11.3376    1.0000 </r>
       <r>  -11.3376    1.0000 </r>
       <r>  -11.3376    1.0000 </r>
       <r>  -11.3376    1.0000 </r>
       <r>  -11.3376    1.0000 </r>
       <r>  -10.9703    1.0000 </r>
       <r>  -10.9703    1.0000 </r>
       <r>  -10.9703    1.0000 </r>
       <r>  -10.9703    1.0000 </r>
       <r>  -10.9703    1.0000 </r>
       <r>  -10.9703    1.0000 </r>
       <r>  -10.9703    1.0000 </r>
       <r>  -10.9703    1.0000 </r>
       <r>  -10.9401    1.0000 </r>
       <r>  -10.9401    1.0000 </r>
       <r>  -10.8942    1.0000 </r>
       <r>  -10.8942    1.0000 </r>
       <r>  -10.8942    1.0000 </r>
       <r>  -10.8942    1.0000 </r>
       <r>  -10.8942    1.0000 </r>
       <r>  -10.8942    1.0000 </r>
       <r>  -10.8942    1.0000 </r>
       <r>  -10.8942    1.0000 </r>
       <r>  -10.6089    1.0000 </r>
       <r>  -10.6089    1.0000 </r>
       <r>  -10.6089    1.0000 </r>
       <r>  -10.6089    1.0000 </r>
       <r>  -10.6089    1.0000 </r>
       <r>  -10.6089    1.0000 </r>
       <r>  -10.6089    1.0000 </r>
       <r>  -10.6089    1.0000 </r>
       <r>  -10.6036    1.0000 </r>
       <r>  -10.6036    1.0000 </r>
       <r>  -10.6036    1.0000 </r>
       <r>  -10.6036    1.0000 </r>
       <r>  -10.6035    1.0000 </r>
       <r>  -10.6035    1.0000 </r>
       <r>  -10.6035    1.0000 </r>
       <r>  -10.6035    1.0000 </r>
       <r>  -10.4575    1.0000 </r>
       <r>  -10.4575    1.0000 </r>
       <r>  -10.3888    1.0000 </r>
       <r>  -10.3888    1.0000 </r>
       <r>  -10.3888    1.0000 </r>
       <r>  -10.3888    1.0000 </r>
       <r>  -10.3888    1.0000 </r>
       <r>  -10.3888    1.0000 </r>
       <r>  -10.3888    1.0000 </r>
       <r>  -10.3888    1.0000 </r>
       <r>  -10.3886    1.0000 </r>
       <r>  -10.3886    1.0000 </r>
       <r>  -10.3885    1.0000 </r>
       <r>  -10.3885    1.0000 </r>
       <r>  -10.3683    1.0000 </r>
       <r>  -10.3683    1.0000 </r>
       <r>  -10.3683    1.0000 </r>
       <r>  -10.3683    1.0000 </r>
       <r>   -3.8638    1.0000 </r>
       <r>   -3.8638    1.0000 </r>
       <r>   -3.5742    1.0000 </r>
       <r>   -3.5742    1.0000 </r>
       <r>   -3.5742    1.0000 </r>
       <r>   -3.5742    1.0000 </r>
       <r>   -3.5741    1.0000 </r>
       <r>   -3.5741    1.0000 </r>
       <r>   -3.5741    1.0000 </r>
       <r>   -3.5741    1.0000 </r>
       <r>   -3.5598    1.0000 </r>
       <r>   -3.5598    1.0000 </r>
       <r>   -3.4588    1.0000 </r>
       <r>   -3.4588    1.0000 </r>
       <r>   -3.4588    1.0000 </r>
       <r>   -3.4588    1.0000 </r>
       <r>   -3.4588    1.0000 </r>
       <r>   -3.4588    1.0000 </r>
       <r>   -3.4588    1.0000 </r>
       <r>   -3.4588    1.0000 </r>
       <r>   -3.2233    1.0000 </r>
       <r>   -3.2233    1.0000 </r>
       <r>   -2.8865    1.0000 </r>
       <r>   -2.8865    1.0000 </r>
       <r>   -2.8865    1.0000 </r>
       <r>   -2.8865    1.0000 </r>
       <r>   -2.8865    1.0000 </r>
       <r>   -2.8865    1.0000 </r>
       <r>   -2.8865    1.0000 </r>
       <r>   -2.8865    1.0000 </r>
       <r>   -2.8472    1.0000 </r>
       <r>   -2.8472    1.0000 </r>
       <r>   -2.1510    1.0000 </r>
       <r>   -2.1510    1.0000 </r>
       <r>   -2.1510    1.0000 </r>
       <r>   -2.1510    1.0000 </r>
       <r>   -2.1510    1.0000 </r>
       <r>   -2.1510    1.0000 </r>
       <r>   -2.1510    1.0000 </r>
       <r>   -2.1510    1.0000 </r>
       <r>   -1.7083    1.0000 </r>
       <r>   -1.7083    1.0000 </r>
       <r>   -1.7083    1.0000 </r>
       <r>   -1.7083    1.0000 </r>
       <r>   -1.7083    1.0000 </r>
       <r>   -1.7083    1.0000 </r>
       <r>   -1.7083    1.0000 </r>
       <r>   -1.7083    1.0000 </r>
       <r>   -1.6883    1.0000 </r>
       <r>   -1.6883    1.0000 </r>
       <r>   -1.5066    1.0000 </r>
       <r>   -1.5066    1.0000 </r>
       <r>   -1.3834    1.0000 </r>
       <r>   -1.3834    1.0000 </r>
       <r>   -1.3834    1.0000 </r>
       <r>   -1.3834    1.0000 </r>
       <r>   -1.3834    1.0000 </r>
       <r>   -1.3834    1.0000 </r>
       <r>   -1.3834    1.0000 </r>
       <r>   -1.3834    1.0000 </r>
       <r>   -1.2330    1.0000 </r>
       <r>   -1.2330    1.0000 </r>
       <r>   -1.2330    1.0000 </r>
       <r>   -1.2330    1.0000 </r>
       <r>   -1.2330    1.0000 </r>
       <r>   -1.2330    1.0000 </r>
       <r>   -1.2330    1.0000 </r>
       <r>   -1.2330    1.0000 </r>
       <r>   -1.1372    1.0000 </r>
       <r>   -1.1372    1.0000 </r>
       <r>   -1.1056    1.0000 </r>
       <r>   -1.1056    1.0000 </r>
       <r>   -0.9669    1.0000 </r>
       <r>   -0.9669    1.0000 </r>
       <r>   -0.8933    1.0000 </r>
       <r>   -0.8933    1.0000 </r>
       <r>   -0.8932    1.0000 </r>
       <r>   -0.8932    1.0000 </r>
       <r>   -0.8932    1.0000 </r>
       <r>   -0.8932    1.0000 </r>
       <r>   -0.8932    1.0000 </r>
       <r>   -0.8932    1.0000 </r>
       <r>   -0.7571    1.0000 </r>
       <r>   -0.7571    1.0000 </r>
       <r>   -0.7571    1.0000 </r>
       <r>   -0.7571    1.0000 </r>
       <r>   -0.7571    1.0000 </r>
       <r>   -0.7571    1.0000 </r>
       <r>   -0.7571    1.0000 </r>
       <r>   -0.7571    1.0000 </r>
       <r>   -0.7292    1.0000 </r>
       <r>   -0.7292    1.0000 </r>
       <r>   -0.7292    1.0000 </r>
       <r>   -0.7292    1.0000 </r>
       <r>   -0.7292    1.0000 </r>
       <r>   -0.7292    1.0000 </r>
       <r>   -0.7292    1.0000 </r>
       <r>   -0.7292    1.0000 </r>
       <r>   -0.6992    1.0000 </r>
       <r>   -0.6992    1.0000 </r>
       <r>   -0.6992    1.0000 </r>
       <r>   -0.6992    1.0000 </r>
       <r>   -0.5974    1.0000 </r>
       <r>   -0.5974    1.0000 </r>
       <r>   -0.5974    1.0000 </r>
       <r>   -0.5974    1.0000 </r>
       <r>   -0.5565    1.0000 </r>
       <r>   -0.5565    1.0000 </r>
       <r>   -0.5160    1.0000 </r>
       <r>   -0.5160    1.0000 </r>
       <r>   -0.5160    1.0000 </r>
       <r>   -0.5160    1.0000 </r>
       <r>   -0.5160    1.0000 </r>
       <r>   -0.5159    1.0000 </r>
       <r>   -0.5159    1.0000 </r>
       <r>   -0.5159    1.0000 </r>
       <r>   -0.4380    1.0000 </r>
       <r>   -0.4380    1.0000 </r>
       <r>   -0.4380    1.0000 </r>
       <r>   -0.4380    1.0000 </r>
       <r>   -0.4380    1.0000 </r>
       <r>   -0.4380    1.0000 </r>
       <r>   -0.4380    1.0000 </r>
       <r>   -0.4380    1.0000 </r>
       <r>   -0.3976    1.0000 </r>
       <r>   -0.3976    1.0000 </r>
       <r>   -0.3976    1.0000 </r>
       <r>   -0.3976    1.0000 </r>
       <r>   -0.3831    1.0000 </r>
       <r>   -0.3831    1.0000 </r>
       <r>   -0.3830    1.0000 </r>
       <r>   -0.3830    1.0000 </r>
       <r>   -0.3830    1.0000 </r>
       <r>   -0.3830    1.0000 </r>
       <r>   -0.3830    1.0000 </r>
       <r>   -0.3830    1.0000 </r>
       <r>   -0.3754    1.0000 </r>
       <r>   -0.3754    1.0000 </r>
       <r>   -0.3753    1.0000 </r>
       <r>   -0.3753    1.0000 </r>
       <r>   -0.2673    1.0000 </r>
       <r>   -0.2673    1.0000 </r>
       <r>   -0.2300    1.0000 </r>
       <r>   -0.2300    1.0000 </r>
       <r>   -0.2300    1.0000 </r>
       <r>   -0.2300    1.0000 </r>
       <r>   -0.2300    1.0000 </r>
       <r>   -0.2300    1.0000 </r>
       <r>   -0.2300    1.0000 </r>
       <r>   -0.2300    1.0000 </r>
       <r>   -0.2015    1.0000 </r>
       <r>   -0.2015    1.0000 </r>
       <r>   -0.1996    1.0000 </r>
       <r>   -0.1996    1.0000 </r>
       <r>   -0.1995    1.0000 </r>
       <r>   -0.1995    1.0000 </r>
       <r>   -0.1766    1.0000 </r>
       <r>   -0.1766    1.0000 </r>
       <r>   -0.1766    1.0000 </r>
       <r>   -0.1766    1.0000 </r>
       <r>   -0.1766    1.0000 </r>
       <r>   -0.1766    1.0000 </r>
       <r>   -0.1766    1.0000 </r>
       <r>   -0.1766    1.0000 </r>
       <r>   -0.0982    1.0000 </r>
       <r>   -0.0982    1.0000 </r>
       <r>   -0.0982    1.0000 </r>
       <r>   -0.0982    1.0000 </r>
       <r>   -0.0277    1.0000 </r>
       <r>   -0.0277    1.0000 </r>
       <r>   -0.0277    1.0000 </r>
       <r>   -0.0277    1.0000 </r>
       <r>   -0.0277    1.0000 </r>
       <r>   -0.0277    1.0000 </r>
       <r>   -0.0277    1.0000 </r>
       <r>   -0.0277    1.0000 </r>
       <r>    0.0899    1.0000 </r>
       <r>    0.0899    1.0000 </r>
       <r>    0.0899    1.0000 </r>
       <r>    0.0899    1.0000 </r>
       <r>    0.0899    1.0000 </r>
       <r>    0.0899    1.0000 </r>
       <r>    0.0899    1.0000 </r>
       <r>    0.0899    1.0000 </r>
       <r>    0.1159    1.0000 </r>
       <r>    0.1159    1.0000 </r>
       <r>    0.1159    1.0000 </r>
       <r>    0.1159    1.0000 </r>
       <r>    0.1159    1.0000 </r>
       <r>    0.1159    1.0000 </r>
       <r>    0.1159    1.0000 </r>
       <r>    0.1159    1.0000 </r>
       <r>    0.6656    1.0000 </r>
       <r>    0.6656    1.0000 </r>
       <r>    0.6806    1.0000 </r>
       <r>    0.6806    1.0000 </r>
       <r>    0.7654    1.0000 </r>
       <r>    0.7654    1.0000 </r>
       <r>    0.7827    1.0000 </r>
       <r>    0.7827    1.0000 </r>
       <r>    0.7828    1.0000 </r>
       <r>    0.7828    1.0000 </r>
       <r>    0.7828    1.0000 </r>
       <r>    0.7828    1.0000 </r>
       <r>    0.7828    1.0000 </r>
       <r>    0.7828    1.0000 </r>
       <r>    0.7906    1.0000 </r>
       <r>    0.7906    1.0000 </r>
       <r>    0.7973    1.0000 </r>
       <r>    0.7974    1.0000 </r>
       <r>    0.7974    1.0000 </r>
       <r>    0.7974    1.0000 </r>
       <r>    0.7974    1.0000 </r>
       <r>    0.7974    1.0000 </r>
       <r>    0.7974    1.0000 </r>
       <r>    0.7974    1.0000 </r>
       <r>    0.8148    1.0000 </r>
       <r>    0.8148    1.0000 </r>
       <r>    0.8267    1.0000 </r>
       <r>    0.8267    1.0000 </r>
       <r>    0.8509    1.0000 </r>
       <r>    0.8509    1.0000 </r>
       <r>    0.8509    1.0000 </r>
       <r>    0.8509    1.0000 </r>
       <r>    0.8509    1.0000 </r>
       <r>    0.8509    1.0000 </r>
       <r>    0.8509    1.0000 </r>
       <r>    0.8509    1.0000 </r>
       <r>    0.9223    1.0000 </r>
       <r>    0.9223    1.0000 </r>
       <r>    0.9250    1.0000 </r>
       <r>    0.9250    1.0000 </r>
       <r>    0.9250    1.0000 </r>
       <r>    0.9250    1.0000 </r>
       <r>    0.9251    1.0000 </r>
       <r>    0.9251    1.0000 </r>
       <r>    0.9251    1.0000 </r>
       <r>    0.9251    1.0000 </r>
       <r>    1.0782    1.0000 </r>
       <r>    1.0782    1.0000 </r>
       <r>    1.1149    1.0000 </r>
       <r>    1.1149    1.0000 </r>
       <r>    1.1149    1.0000 </r>
       <r>    1.1149    1.0000 </r>
       <r>    1.1150    1.0000 </r>
       <r>    1.1150    1.0000 </r>
       <r>    1.1150    1.0000 </r>
       <r>    1.1150    1.0000 </r>
       <r>    1.1316    1.0000 </r>
       <r>    1.1316    1.0000 </r>
       <r>    1.1316    1.0000 </r>
       <r>    1.1316    1.0000 </r>
       <r>    1.1316    1.0000 </r>
       <r>    1.1316    1.0000 </r>
       <r>    1.1316    1.0000 </r>
       <r>    1.1316    1.0000 </r>
       <r>    1.2223    1.0000 </r>
       <r>    1.2223    1.0000 </r>
       <r>    1.2223    1.0000 </r>
       <r>    1.2223    1.0000 </r>
       <r>    1.2223    1.0000 </r>
       <r>    1.2223    1.0000 </r>
       <r>    1.2223    1.0000 </r>
       <r>    1.2223    1.0000 </r>
       <r>    1.2783    1.0000 </r>
       <r>    1.2783    1.0000 </r>
       <r>    1.2784    1.0000 </r>
       <r>    1.2784    1.0000 </r>
       <r>    1.2927    1.0000 </r>
       <r>    1.2927    1.0000 </r>
       <r>    1.3733    1.0000 </r>
       <r>    1.3733    1.0000 </r>
       <r>    1.3734    1.0000 </r>
       <r>    1.3734    1.0000 </r>
       <r>    1.3734    1.0000 </r>
       <r>    1.3734    1.0000 </r>
       <r>    1.3734    1.0000 </r>
       <r>    1.3734    1.0000 </r>
       <r>    1.3964    1.0000 </r>
       <r>    1.3964    1.0000 </r>
       <r>    1.6795    1.0000 </r>
       <r>    1.6795    1.0000 </r>
       <r>    1.6795    1.0000 </r>
       <r>    1.6795    1.0000 </r>
       <r>    1.6795    1.0000 </r>
       <r>    1.6795    1.0000 </r>
       <r>    1.6795    1.0000 </r>
       <r>    1.6795    1.0000 </r>
       <r>    1.6988    1.0000 </r>
       <r>    1.6988    1.0000 </r>
       <r>    1.6988    1.0000 </r>
       <r>    1.6988    1.0000 </r>
       <r>    1.7229    1.0000 </r>
       <r>    1.7229    1.0000 </r>
       <r>    1.7229    1.0000 </r>
       <r>    1.7229    1.0000 </r>
       <r>    1.7229    1.0000 </r>
       <r>    1.7229    1.0000 </r>
       <r>    1.7230    1.0000 </r>
       <r>    1.7230    1.0000 </r>
       <r>    1.8491    1.0000 </r>
       <r>    1.8491    1.0000 </r>
       <r>    1.9724    1.0000 </r>
       <r>    1.9724    1.0000 </r>
       <r>    1.9724    1.0000 </r>
       <r>    1.9725    1.0000 </r>
       <r>    1.9725    1.0000 </r>
       <r>    1.9725    1.0000 </r>
       <r>    1.9725    1.0000 </r>
       <r>    1.9725    1.0000 </r>
       <r>    2.0538    1.0000 </r>
       <r>    2.0538    1.0000 </r>
       <r>    2.0538    1.0000 </r>
       <r>    2.0538    1.0000 </r>
       <r>    2.0538    1.0000 </r>
       <r>    2.0538    1.0000 </r>
       <r>    2.0538    1.0000 </r>
       <r>    2.0538    1.0000 </r>
       <r>    2.2472    1.0000 </r>
       <r>    2.2472    1.0000 </r>
       <r>    2.2472    1.0000 </r>
       <r>    2.2472    1.0000 </r>
       <r>    2.2473    1.0000 </r>
       <r>    2.2473    1.0000 </r>
       <r>    2.2473    1.0000 </r>
       <r>    2.2473    1.0000 </r>
       <r>    2.3706    1.0000 </r>
       <r>    2.3706    1.0000 </r>
       <r>    2.3706    1.0000 </r>
       <r>    2.3706    1.0000 </r>
       <r>    2.4947    1.0000 </r>
       <r>    2.4947    1.0000 </r>
       <r>    2.4947    1.0000 </r>
       <r>    2.4947    1.0000 </r>
       <r>    2.4947    1.0000 </r>
       <r>    2.4947    1.0000 </r>
       <r>    2.4947    1.0000 </r>
       <r>    2.4947    1.0000 </r>
       <r>    2.5319    1.0000 </r>
       <r>    2.5319    1.0000 </r>
       <r>    2.5319    1.0000 </r>
       <r>    2.5319    1.0000 </r>
       <r>    2.5319    1.0000 </r>
       <r>    2.5319    1.0000 </r>
       <r>    2.5319    1.0000 </r>
       <r>    2.5320    1.0000 </r>
       <r>    2.7581    1.0000 </r>
       <r>    2.7581    1.0000 </r>
       <r>    2.9908    1.0000 </r>
       <r>    2.9908    1.0000 </r>
       <r>    2.9908    1.0000 </r>
       <r>    2.9908    1.0000 </r>
       <r>    4.6888    0.0000 </r>
       <r>    4.6888    0.0000 </r>
       <r>    5.6378    0.0000 </r>
       <r>    5.6378    0.0000 </r>
       <r>    5.6378    0.0000 </r>
       <r>    5.6378    0.0000 </r>
       <r>    5.6378    0.0000 </r>
       <r>    5.6378    0.0000 </r>
       <r>    5.6378    0.0000 </r>
       <r>    5.6378    0.0000 </r>
       <r>    6.0116    0.0000 </r>
       <r>    6.0116    0.0000 </r>
       <r>    6.1646    0.0000 </r>
       <r>    6.1646    0.0000 </r>
       <r>    6.2798    0.0000 </r>
       <r>    6.2798    0.0000 </r>
       <r>    6.2799    0.0000 </r>
       <r>    6.2799    0.0000 </r>
       <r>    6.3686    0.0000 </r>
       <r>    6.3686    0.0000 </r>
       <r>    6.4378    0.0000 </r>
       <r>    6.4378    0.0000 </r>
       <r>    6.4378    0.0000 </r>
       <r>    6.4378    0.0000 </r>
       <r>    6.4378    0.0000 </r>
       <r>    6.4378    0.0000 </r>
       <r>    6.4378    0.0000 </r>
       <r>    6.4378    0.0000 </r>
       <r>    6.6415    0.0000 </r>
       <r>    6.6415    0.0000 </r>
       <r>    6.6734    0.0000 </r>
       <r>    6.6734    0.0000 </r>
       <r>    6.9394    0.0000 </r>
       <r>    6.9394    0.0000 </r>
       <r>    6.9394    0.0000 </r>
       <r>    6.9394    0.0000 </r>
       <r>    6.9394    0.0000 </r>
       <r>    6.9394    0.0000 </r>
       <r>    6.9394    0.0000 </r>
       <r>    6.9394    0.0000 </r>
       <r>    7.1392    0.0000 </r>
       <r>    7.1392    0.0000 </r>
       <r>    7.1392    0.0000 </r>
       <r>    7.1392    0.0000 </r>
       <r>    7.1392    0.0000 </r>
       <r>    7.1392    0.0000 </r>
       <r>    7.1393    0.0000 </r>
       <r>    7.1393    0.0000 </r>
       <r>    7.2924    0.0000 </r>
       <r>    7.2924    0.0000 </r>
       <r>    7.5396    0.0000 </r>
       <r>    7.5396    0.0000 </r>
       <r>    7.5396    0.0000 </r>
       <r>    7.5396    0.0000 </r>
       <r>    7.5396    0.0000 </r>
       <r>    7.5396    0.0000 </r>
       <r>    7.5396    0.0000 </r>
       <r>    7.5396    0.0000 </r>
       <r>    7.7053    0.0000 </r>
       <r>    7.7053    0.0000 </r>
       <r>    7.7053    0.0000 </r>
       <r>    7.7053    0.0000 </r>
       <r>    8.0917    0.0000 </r>
       <r>    8.0917    0.0000 </r>
       <r>    8.0917    0.0000 </r>
       <r>    8.0917    0.0000 </r>
       <r>    8.0917    0.0000 </r>
       <r>    8.0917    0.0000 </r>
       <r>    8.0917    0.0000 </r>
       <r>    8.0917    0.0000 </r>
       <r>    8.2334    0.0000 </r>
       <r>    8.2334    0.0000 </r>
       <r>    8.3444    0.0000 </r>
       <r>    8.3444    0.0000 </r>
       <r>    8.4819    0.0000 </r>
       <r>    8.4819    0.0000 </r>
       <r>    8.5641    0.0000 </r>
       <r>    8.5641    0.0000 </r>
       <r>    8.5641    0.0000 </r>
       <r>    8.5641    0.0000 </r>
       <r>    8.5641    0.0000 </r>
       <r>    8.5641    0.0000 </r>
       <r>    8.5641    0.0000 </r>
       <r>    8.5641    0.0000 </r>
       <r>    8.8808    0.0000 </r>
       <r>    8.8808    0.0000 </r>
       <r>    8.8808    0.0000 </r>
       <r>    8.8808    0.0000 </r>
       <r>    8.8808    0.0000 </r>
       <r>    8.8808    0.0000 </r>
       <r>    8.8808    0.0000 </r>
       <r>    8.8809    0.0000 </r>
       <r>    8.9570    0.0000 </r>
       <r>    8.9570    0.0000 </r>
       <r>    8.9570    0.0000 </r>
       <r>    8.9570    0.0000 </r>
       <r>    8.9571    0.0000 </r>
       <r>    8.9571    0.0000 </r>
       <r>    8.9572    0.0000 </r>
       <r>    8.9575    0.0000 </r>
       <r>    9.0112    0.0000 </r>
       <r>    9.0115    0.0000 </r>
       <r>    9.0826    0.0000 </r>
       <r>    9.0826    0.0000 </r>
       <r>    9.0827    0.0000 </r>
       <r>    9.0828    0.0000 </r>
       <r>    9.0831    0.0000 </r>
       <r>    9.0832    0.0000 </r>
       <r>    9.0838    0.0000 </r>
       <r>    9.0875    0.0000 </r>
       <r>    9.1655    0.0000 </r>
       <r>    9.1783    0.0000 </r>
       <r>    9.3122    0.0000 </r>
       <r>    9.3157    0.0000 </r>
       <r>    9.3274    0.0000 </r>
       <r>    9.3289    0.0000 </r>
      </set>
      <set comment="kpoint 5">
       <r>  -13.6578    1.0000 </r>
       <r>  -13.6578    1.0000 </r>
       <r>  -13.6578    1.0000 </r>
       <r>  -13.6578    1.0000 </r>
       <r>  -13.6578    1.0000 </r>
       <r>  -13.6578    1.0000 </r>
       <r>  -13.6578    1.0000 </r>
       <r>  -13.6577    1.0000 </r>
       <r>  -13.6525    1.0000 </r>
       <r>  -13.6525    1.0000 </r>
       <r>  -13.6525    1.0000 </r>
       <r>  -13.6525    1.0000 </r>
       <r>  -13.6464    1.0000 </r>
       <r>  -13.6464    1.0000 </r>
       <r>  -13.6464    1.0000 </r>
       <r>  -13.6464    1.0000 </r>
       <r>  -13.6464    1.0000 </r>
       <r>  -13.6464    1.0000 </r>
       <r>  -13.6464    1.0000 </r>
       <r>  -13.6464    1.0000 </r>
       <r>  -13.6459    1.0000 </r>
       <r>  -13.6459    1.0000 </r>
       <r>  -13.6459    1.0000 </r>
       <r>  -13.6459    1.0000 </r>
       <r>  -13.6405    1.0000 </r>
       <r>  -13.6405    1.0000 </r>
       <r>  -13.6405    1.0000 </r>
       <r>  -13.6405    1.0000 </r>
       <r>  -13.6360    1.0000 </r>
       <r>  -13.6360    1.0000 </r>
       <r>  -13.6360    1.0000 </r>
       <r>  -13.6360    1.0000 </r>
       <r>  -13.6149    1.0000 </r>
       <r>  -13.6149    1.0000 </r>
       <r>  -13.6149    1.0000 </r>
       <r>  -13.6149    1.0000 </r>
       <r>  -13.5734    1.0000 </r>
       <r>  -13.5734    1.0000 </r>
       <r>  -13.5734    1.0000 </r>
       <r>  -13.5734    1.0000 </r>
       <r>  -13.5685    1.0000 </r>
       <r>  -13.5685    1.0000 </r>
       <r>  -13.5685    1.0000 </r>
       <r>  -13.5685    1.0000 </r>
       <r>  -13.5685    1.0000 </r>
       <r>  -13.5685    1.0000 </r>
       <r>  -13.5685    1.0000 </r>
       <r>  -13.5685    1.0000 </r>
       <r>  -13.4828    1.0000 </r>
       <r>  -13.4828    1.0000 </r>
       <r>  -13.4828    1.0000 </r>
       <r>  -13.4828    1.0000 </r>
       <r>  -13.4718    1.0000 </r>
       <r>  -13.4718    1.0000 </r>
       <r>  -13.4718    1.0000 </r>
       <r>  -13.4718    1.0000 </r>
       <r>  -13.4718    1.0000 </r>
       <r>  -13.4718    1.0000 </r>
       <r>  -13.4718    1.0000 </r>
       <r>  -13.4718    1.0000 </r>
       <r>  -13.4090    1.0000 </r>
       <r>  -13.4090    1.0000 </r>
       <r>  -13.4090    1.0000 </r>
       <r>  -13.4090    1.0000 </r>
       <r>  -13.3780    1.0000 </r>
       <r>  -13.3780    1.0000 </r>
       <r>  -13.3780    1.0000 </r>
       <r>  -13.3780    1.0000 </r>
       <r>  -13.3780    1.0000 </r>
       <r>  -13.3780    1.0000 </r>
       <r>  -13.3780    1.0000 </r>
       <r>  -13.3780    1.0000 </r>
       <r>  -13.3768    1.0000 </r>
       <r>  -13.3768    1.0000 </r>
       <r>  -13.3768    1.0000 </r>
       <r>  -13.3768    1.0000 </r>
       <r>  -13.3622    1.0000 </r>
       <r>  -13.3622    1.0000 </r>
       <r>  -13.3622    1.0000 </r>
       <r>  -13.3622    1.0000 </r>
       <r>  -13.3622    1.0000 </r>
       <r>  -13.3622    1.0000 </r>
       <r>  -13.3622    1.0000 </r>
       <r>  -13.3622    1.0000 </r>
       <r>  -13.3590    1.0000 </r>
       <r>  -13.3590    1.0000 </r>
       <r>  -13.3590    1.0000 </r>
       <r>  -13.3590    1.0000 </r>
       <r>  -13.3542    1.0000 </r>
       <r>  -13.3542    1.0000 </r>
       <r>  -13.3542    1.0000 </r>
       <r>  -13.3542    1.0000 </r>
       <r>  -13.3447    1.0000 </r>
       <r>  -13.3447    1.0000 </r>
       <r>  -13.3447    1.0000 </r>
       <r>  -13.3446    1.0000 </r>
       <r>  -13.2768    1.0000 </r>
       <r>  -13.2768    1.0000 </r>
       <r>  -13.2768    1.0000 </r>
       <r>  -13.2768    1.0000 </r>
       <r>  -13.2734    1.0000 </r>
       <r>  -13.2734    1.0000 </r>
       <r>  -13.2734    1.0000 </r>
       <r>  -13.2734    1.0000 </r>
       <r>  -13.2704    1.0000 </r>
       <r>  -13.2704    1.0000 </r>
       <r>  -13.2704    1.0000 </r>
       <r>  -13.2704    1.0000 </r>
       <r>  -13.2640    1.0000 </r>
       <r>  -13.2640    1.0000 </r>
       <r>  -13.2640    1.0000 </r>
       <r>  -13.2640    1.0000 </r>
       <r>  -13.2640    1.0000 </r>
       <r>  -13.2640    1.0000 </r>
       <r>  -13.2640    1.0000 </r>
       <r>  -13.2640    1.0000 </r>
       <r>  -13.2631    1.0000 </r>
       <r>  -13.2631    1.0000 </r>
       <r>  -13.2631    1.0000 </r>
       <r>  -13.2631    1.0000 </r>
       <r>  -13.2631    1.0000 </r>
       <r>  -13.2631    1.0000 </r>
       <r>  -13.2631    1.0000 </r>
       <r>  -13.2631    1.0000 </r>
       <r>  -13.2625    1.0000 </r>
       <r>  -13.2625    1.0000 </r>
       <r>  -13.2625    1.0000 </r>
       <r>  -13.2625    1.0000 </r>
       <r>  -13.2557    1.0000 </r>
       <r>  -13.2557    1.0000 </r>
       <r>  -13.2557    1.0000 </r>
       <r>  -13.2557    1.0000 </r>
       <r>  -13.2497    1.0000 </r>
       <r>  -13.2497    1.0000 </r>
       <r>  -13.2497    1.0000 </r>
       <r>  -13.2497    1.0000 </r>
       <r>  -13.2497    1.0000 </r>
       <r>  -13.2497    1.0000 </r>
       <r>  -13.2497    1.0000 </r>
       <r>  -13.2497    1.0000 </r>
       <r>  -13.2462    1.0000 </r>
       <r>  -13.2462    1.0000 </r>
       <r>  -13.2462    1.0000 </r>
       <r>  -13.2462    1.0000 </r>
       <r>  -13.2447    1.0000 </r>
       <r>  -13.2447    1.0000 </r>
       <r>  -13.2447    1.0000 </r>
       <r>  -13.2447    1.0000 </r>
       <r>  -13.2447    1.0000 </r>
       <r>  -13.2447    1.0000 </r>
       <r>  -13.2447    1.0000 </r>
       <r>  -13.2447    1.0000 </r>
       <r>  -13.2392    1.0000 </r>
       <r>  -13.2392    1.0000 </r>
       <r>  -13.2392    1.0000 </r>
       <r>  -13.2392    1.0000 </r>
       <r>  -13.2383    1.0000 </r>
       <r>  -13.2383    1.0000 </r>
       <r>  -13.2383    1.0000 </r>
       <r>  -13.2383    1.0000 </r>
       <r>  -11.7480    1.0000 </r>
       <r>  -11.7480    1.0000 </r>
       <r>  -11.7480    1.0000 </r>
       <r>  -11.7480    1.0000 </r>
       <r>  -11.3994    1.0000 </r>
       <r>  -11.3994    1.0000 </r>
       <r>  -11.3994    1.0000 </r>
       <r>  -11.3994    1.0000 </r>
       <r>  -11.2199    1.0000 </r>
       <r>  -11.2199    1.0000 </r>
       <r>  -11.2199    1.0000 </r>
       <r>  -11.2199    1.0000 </r>
       <r>  -11.2199    1.0000 </r>
       <r>  -11.2199    1.0000 </r>
       <r>  -11.2199    1.0000 </r>
       <r>  -11.2199    1.0000 </r>
       <r>  -10.8812    1.0000 </r>
       <r>  -10.8812    1.0000 </r>
       <r>  -10.8812    1.0000 </r>
       <r>  -10.8812    1.0000 </r>
       <r>  -10.8593    1.0000 </r>
       <r>  -10.8593    1.0000 </r>
       <r>  -10.8593    1.0000 </r>
       <r>  -10.8593    1.0000 </r>
       <r>  -10.8593    1.0000 </r>
       <r>  -10.8593    1.0000 </r>
       <r>  -10.8593    1.0000 </r>
       <r>  -10.8593    1.0000 </r>
       <r>  -10.6312    1.0000 </r>
       <r>  -10.6312    1.0000 </r>
       <r>  -10.6312    1.0000 </r>
       <r>  -10.6312    1.0000 </r>
       <r>  -10.6312    1.0000 </r>
       <r>  -10.6312    1.0000 </r>
       <r>  -10.6312    1.0000 </r>
       <r>  -10.6312    1.0000 </r>
       <r>  -10.5893    1.0000 </r>
       <r>  -10.5893    1.0000 </r>
       <r>  -10.5893    1.0000 </r>
       <r>  -10.5893    1.0000 </r>
       <r>  -10.5449    1.0000 </r>
       <r>  -10.5449    1.0000 </r>
       <r>  -10.5449    1.0000 </r>
       <r>  -10.5449    1.0000 </r>
       <r>  -10.4662    1.0000 </r>
       <r>  -10.4662    1.0000 </r>
       <r>  -10.4662    1.0000 </r>
       <r>  -10.4662    1.0000 </r>
       <r>  -10.4662    1.0000 </r>
       <r>  -10.4662    1.0000 </r>
       <r>  -10.4662    1.0000 </r>
       <r>  -10.4662    1.0000 </r>
       <r>  -10.4507    1.0000 </r>
       <r>  -10.4507    1.0000 </r>
       <r>  -10.4507    1.0000 </r>
       <r>  -10.4507    1.0000 </r>
       <r>  -10.4046    1.0000 </r>
       <r>  -10.4046    1.0000 </r>
       <r>  -10.4046    1.0000 </r>
       <r>  -10.4046    1.0000 </r>
       <r>  -10.3794    1.0000 </r>
       <r>  -10.3794    1.0000 </r>
       <r>  -10.3794    1.0000 </r>
       <r>  -10.3794    1.0000 </r>
       <r>   -3.7210    1.0000 </r>
       <r>   -3.7210    1.0000 </r>
       <r>   -3.7210    1.0000 </r>
       <r>   -3.7210    1.0000 </r>
       <r>   -3.5770    1.0000 </r>
       <r>   -3.5770    1.0000 </r>
       <r>   -3.5770    1.0000 </r>
       <r>   -3.5770    1.0000 </r>
       <r>   -3.5770    1.0000 </r>
       <r>   -3.5770    1.0000 </r>
       <r>   -3.5770    1.0000 </r>
       <r>   -3.5769    1.0000 </r>
       <r>   -3.4534    1.0000 </r>
       <r>   -3.4534    1.0000 </r>
       <r>   -3.4534    1.0000 </r>
       <r>   -3.4534    1.0000 </r>
       <r>   -3.2119    1.0000 </r>
       <r>   -3.2118    1.0000 </r>
       <r>   -3.2118    1.0000 </r>
       <r>   -3.2118    1.0000 </r>
       <r>   -3.2118    1.0000 </r>
       <r>   -3.2118    1.0000 </r>
       <r>   -3.2118    1.0000 </r>
       <r>   -3.2118    1.0000 </r>
       <r>   -3.0776    1.0000 </r>
       <r>   -3.0776    1.0000 </r>
       <r>   -3.0776    1.0000 </r>
       <r>   -3.0776    1.0000 </r>
       <r>   -2.8602    1.0000 </r>
       <r>   -2.8602    1.0000 </r>
       <r>   -2.8602    1.0000 </r>
       <r>   -2.8602    1.0000 </r>
       <r>   -2.0507    1.0000 </r>
       <r>   -2.0507    1.0000 </r>
       <r>   -2.0507    1.0000 </r>
       <r>   -2.0507    1.0000 </r>
       <r>   -2.0507    1.0000 </r>
       <r>   -2.0507    1.0000 </r>
       <r>   -2.0507    1.0000 </r>
       <r>   -2.0507    1.0000 </r>
       <r>   -1.7339    1.0000 </r>
       <r>   -1.7339    1.0000 </r>
       <r>   -1.7339    1.0000 </r>
       <r>   -1.7339    1.0000 </r>
       <r>   -1.7282    1.0000 </r>
       <r>   -1.7282    1.0000 </r>
       <r>   -1.7282    1.0000 </r>
       <r>   -1.7282    1.0000 </r>
       <r>   -1.7282    1.0000 </r>
       <r>   -1.7282    1.0000 </r>
       <r>   -1.7282    1.0000 </r>
       <r>   -1.7282    1.0000 </r>
       <r>   -1.5853    1.0000 </r>
       <r>   -1.5853    1.0000 </r>
       <r>   -1.5853    1.0000 </r>
       <r>   -1.5853    1.0000 </r>
       <r>   -1.4078    1.0000 </r>
       <r>   -1.4078    1.0000 </r>
       <r>   -1.4078    1.0000 </r>
       <r>   -1.4078    1.0000 </r>
       <r>   -1.1610    1.0000 </r>
       <r>   -1.1610    1.0000 </r>
       <r>   -1.1610    1.0000 </r>
       <r>   -1.1610    1.0000 </r>
       <r>   -1.1457    1.0000 </r>
       <r>   -1.1457    1.0000 </r>
       <r>   -1.1457    1.0000 </r>
       <r>   -1.1456    1.0000 </r>
       <r>   -1.1456    1.0000 </r>
       <r>   -1.1456    1.0000 </r>
       <r>   -1.1456    1.0000 </r>
       <r>   -1.1456    1.0000 </r>
       <r>   -1.1187    1.0000 </r>
       <r>   -1.1187    1.0000 </r>
       <r>   -1.1187    1.0000 </r>
       <r>   -1.1187    1.0000 </r>
       <r>   -1.0603    1.0000 </r>
       <r>   -1.0603    1.0000 </r>
       <r>   -1.0603    1.0000 </r>
       <r>   -1.0603    1.0000 </r>
       <r>   -0.7025    1.0000 </r>
       <r>   -0.7025    1.0000 </r>
       <r>   -0.7025    1.0000 </r>
       <r>   -0.7025    1.0000 </r>
       <r>   -0.6675    1.0000 </r>
       <r>   -0.6675    1.0000 </r>
       <r>   -0.6675    1.0000 </r>
       <r>   -0.6675    1.0000 </r>
       <r>   -0.6602    1.0000 </r>
       <r>   -0.6602    1.0000 </r>
       <r>   -0.6602    1.0000 </r>
       <r>   -0.6602    1.0000 </r>
       <r>   -0.6581    1.0000 </r>
       <r>   -0.6581    1.0000 </r>
       <r>   -0.6580    1.0000 </r>
       <r>   -0.6580    1.0000 </r>
       <r>   -0.6580    1.0000 </r>
       <r>   -0.6580    1.0000 </r>
       <r>   -0.6580    1.0000 </r>
       <r>   -0.6580    1.0000 </r>
       <r>   -0.5506    1.0000 </r>
       <r>   -0.5506    1.0000 </r>
       <r>   -0.5506    1.0000 </r>
       <r>   -0.5506    1.0000 </r>
       <r>   -0.5074    1.0000 </r>
       <r>   -0.5074    1.0000 </r>
       <r>   -0.5074    1.0000 </r>
       <r>   -0.5074    1.0000 </r>
       <r>   -0.4737    1.0000 </r>
       <r>   -0.4737    1.0000 </r>
       <r>   -0.4737    1.0000 </r>
       <r>   -0.4737    1.0000 </r>
       <r>   -0.4737    1.0000 </r>
       <r>   -0.4737    1.0000 </r>
       <r>   -0.4737    1.0000 </r>
       <r>   -0.4737    1.0000 </r>
       <r>   -0.4369    1.0000 </r>
       <r>   -0.4369    1.0000 </r>
       <r>   -0.4369    1.0000 </r>
       <r>   -0.4369    1.0000 </r>
       <r>   -0.4348    1.0000 </r>
       <r>   -0.4348    1.0000 </r>
       <r>   -0.4348    1.0000 </r>
       <r>   -0.4348    1.0000 </r>
       <r>   -0.4348    1.0000 </r>
       <r>   -0.4348    1.0000 </r>
       <r>   -0.4348    1.0000 </r>
       <r>   -0.4348    1.0000 </r>
       <r>   -0.4282    1.0000 </r>
       <r>   -0.4282    1.0000 </r>
       <r>   -0.4282    1.0000 </r>
       <r>   -0.4282    1.0000 </r>
       <r>   -0.3475    1.0000 </r>
       <r>   -0.3475    1.0000 </r>
       <r>   -0.3475    1.0000 </r>
       <r>   -0.3475    1.0000 </r>
       <r>   -0.2793    1.0000 </r>
       <r>   -0.2793    1.0000 </r>
       <r>   -0.2793    1.0000 </r>
       <r>   -0.2793    1.0000 </r>
       <r>   -0.2793    1.0000 </r>
       <r>   -0.2793    1.0000 </r>
       <r>   -0.2793    1.0000 </r>
       <r>   -0.2793    1.0000 </r>
       <r>   -0.2749    1.0000 </r>
       <r>   -0.2749    1.0000 </r>
       <r>   -0.2749    1.0000 </r>
       <r>   -0.2749    1.0000 </r>
       <r>   -0.2289    1.0000 </r>
       <r>   -0.2289    1.0000 </r>
       <r>   -0.2289    1.0000 </r>
       <r>   -0.2289    1.0000 </r>
       <r>   -0.1697    1.0000 </r>
       <r>   -0.1697    1.0000 </r>
       <r>   -0.1697    1.0000 </r>
       <r>   -0.1696    1.0000 </r>
       <r>   -0.1568    1.0000 </r>
       <r>   -0.1568    1.0000 </r>
       <r>   -0.1568    1.0000 </r>
       <r>   -0.1568    1.0000 </r>
       <r>   -0.1568    1.0000 </r>
       <r>   -0.1568    1.0000 </r>
       <r>   -0.1568    1.0000 </r>
       <r>   -0.1568    1.0000 </r>
       <r>   -0.0870    1.0000 </r>
       <r>   -0.0870    1.0000 </r>
       <r>   -0.0870    1.0000 </r>
       <r>   -0.0870    1.0000 </r>
       <r>    0.0116    1.0000 </r>
       <r>    0.0116    1.0000 </r>
       <r>    0.0116    1.0000 </r>
       <r>    0.0116    1.0000 </r>
       <r>    0.0349    1.0000 </r>
       <r>    0.0349    1.0000 </r>
       <r>    0.0349    1.0000 </r>
       <r>    0.0349    1.0000 </r>
       <r>    0.0349    1.0000 </r>
       <r>    0.0349    1.0000 </r>
       <r>    0.0349    1.0000 </r>
       <r>    0.0349    1.0000 </r>
       <r>    0.0761    1.0000 </r>
       <r>    0.0761    1.0000 </r>
       <r>    0.0761    1.0000 </r>
       <r>    0.0761    1.0000 </r>
       <r>    0.1214    1.0000 </r>
       <r>    0.1214    1.0000 </r>
       <r>    0.1215    1.0000 </r>
       <r>    0.1215    1.0000 </r>
       <r>    0.1215    1.0000 </r>
       <r>    0.1215    1.0000 </r>
       <r>    0.1215    1.0000 </r>
       <r>    0.1215    1.0000 </r>
       <r>    0.7546    1.0000 </r>
       <r>    0.7546    1.0000 </r>
       <r>    0.7546    1.0000 </r>
       <r>    0.7547    1.0000 </r>
       <r>    0.7813    1.0000 </r>
       <r>    0.7813    1.0000 </r>
       <r>    0.7814    1.0000 </r>
       <r>    0.7814    1.0000 </r>
       <r>    0.7814    1.0000 </r>
       <r>    0.7814    1.0000 </r>
       <r>    0.7814    1.0000 </r>
       <r>    0.7814    1.0000 </r>
       <r>    0.7834    1.0000 </r>
       <r>    0.7834    1.0000 </r>
       <r>    0.7835    1.0000 </r>
       <r>    0.7835    1.0000 </r>
       <r>    0.8306    1.0000 </r>
       <r>    0.8306    1.0000 </r>
       <r>    0.8306    1.0000 </r>
       <r>    0.8306    1.0000 </r>
       <r>    0.8358    1.0000 </r>
       <r>    0.8358    1.0000 </r>
       <r>    0.8358    1.0000 </r>
       <r>    0.8358    1.0000 </r>
       <r>    0.8358    1.0000 </r>
       <r>    0.8358    1.0000 </r>
       <r>    0.8358    1.0000 </r>
       <r>    0.8358    1.0000 </r>
       <r>    0.8471    1.0000 </r>
       <r>    0.8471    1.0000 </r>
       <r>    0.8472    1.0000 </r>
       <r>    0.8472    1.0000 </r>
       <r>    0.8736    1.0000 </r>
       <r>    0.8736    1.0000 </r>
       <r>    0.8736    1.0000 </r>
       <r>    0.8736    1.0000 </r>
       <r>    0.9216    1.0000 </r>
       <r>    0.9216    1.0000 </r>
       <r>    0.9216    1.0000 </r>
       <r>    0.9216    1.0000 </r>
       <r>    0.9255    1.0000 </r>
       <r>    0.9255    1.0000 </r>
       <r>    0.9256    1.0000 </r>
       <r>    0.9256    1.0000 </r>
       <r>    0.9256    1.0000 </r>
       <r>    0.9256    1.0000 </r>
       <r>    0.9256    1.0000 </r>
       <r>    0.9256    1.0000 </r>
       <r>    0.9980    1.0000 </r>
       <r>    0.9981    1.0000 </r>
       <r>    0.9981    1.0000 </r>
       <r>    0.9981    1.0000 </r>
       <r>    1.0202    1.0000 </r>
       <r>    1.0202    1.0000 </r>
       <r>    1.0202    1.0000 </r>
       <r>    1.0202    1.0000 </r>
       <r>    1.1142    1.0000 </r>
       <r>    1.1142    1.0000 </r>
       <r>    1.1142    1.0000 </r>
       <r>    1.1142    1.0000 </r>
       <r>    1.1142    1.0000 </r>
       <r>    1.1143    1.0000 </r>
       <r>    1.1143    1.0000 </r>
       <r>    1.1143    1.0000 </r>
       <r>    1.1748    1.0000 </r>
       <r>    1.1748    1.0000 </r>
       <r>    1.1748    1.0000 </r>
       <r>    1.1748    1.0000 </r>
       <r>    1.2554    1.0000 </r>
       <r>    1.2554    1.0000 </r>
       <r>    1.2554    1.0000 </r>
       <r>    1.2554    1.0000 </r>
       <r>    1.4404    1.0000 </r>
       <r>    1.4405    1.0000 </r>
       <r>    1.4405    1.0000 </r>
       <r>    1.4405    1.0000 </r>
       <r>    1.4776    1.0000 </r>
       <r>    1.4776    1.0000 </r>
       <r>    1.4776    1.0000 </r>
       <r>    1.4776    1.0000 </r>
       <r>    1.4792    1.0000 </r>
       <r>    1.4792    1.0000 </r>
       <r>    1.4792    1.0000 </r>
       <r>    1.4792    1.0000 </r>
       <r>    1.5435    1.0000 </r>
       <r>    1.5435    1.0000 </r>
       <r>    1.5435    1.0000 </r>
       <r>    1.5435    1.0000 </r>
       <r>    1.5435    1.0000 </r>
       <r>    1.5435    1.0000 </r>
       <r>    1.5435    1.0000 </r>
       <r>    1.5435    1.0000 </r>
       <r>    1.6097    1.0000 </r>
       <r>    1.6097    1.0000 </r>
       <r>    1.6097    1.0000 </r>
       <r>    1.6097    1.0000 </r>
       <r>    1.6247    1.0000 </r>
       <r>    1.6247    1.0000 </r>
       <r>    1.6247    1.0000 </r>
       <r>    1.6247    1.0000 </r>
       <r>    1.6247    1.0000 </r>
       <r>    1.6247    1.0000 </r>
       <r>    1.6247    1.0000 </r>
       <r>    1.6247    1.0000 </r>
       <r>    1.8288    1.0000 </r>
       <r>    1.8288    1.0000 </r>
       <r>    1.8288    1.0000 </r>
       <r>    1.8288    1.0000 </r>
       <r>    1.8288    1.0000 </r>
       <r>    1.8288    1.0000 </r>
       <r>    1.8288    1.0000 </r>
       <r>    1.8288    1.0000 </r>
       <r>    1.9171    1.0000 </r>
       <r>    1.9171    1.0000 </r>
       <r>    1.9171    1.0000 </r>
       <r>    1.9171    1.0000 </r>
       <r>    2.0339    1.0000 </r>
       <r>    2.0339    1.0000 </r>
       <r>    2.0339    1.0000 </r>
       <r>    2.0339    1.0000 </r>
       <r>    2.0515    1.0000 </r>
       <r>    2.0515    1.0000 </r>
       <r>    2.0515    1.0000 </r>
       <r>    2.0516    1.0000 </r>
       <r>    2.0516    1.0000 </r>
       <r>    2.0516    1.0000 </r>
       <r>    2.0516    1.0000 </r>
       <r>    2.0516    1.0000 </r>
       <r>    2.0594    1.0000 </r>
       <r>    2.0594    1.0000 </r>
       <r>    2.0595    1.0000 </r>
       <r>    2.0595    1.0000 </r>
       <r>    2.3258    1.0000 </r>
       <r>    2.3258    1.0000 </r>
       <r>    2.3258    1.0000 </r>
       <r>    2.3258    1.0000 </r>
       <r>    2.3258    1.0000 </r>
       <r>    2.3258    1.0000 </r>
       <r>    2.3258    1.0000 </r>
       <r>    2.3258    1.0000 </r>
       <r>    2.4631    1.0000 </r>
       <r>    2.4631    1.0000 </r>
       <r>    2.4631    1.0000 </r>
       <r>    2.4631    1.0000 </r>
       <r>    2.4631    1.0000 </r>
       <r>    2.4631    1.0000 </r>
       <r>    2.4631    1.0000 </r>
       <r>    2.4631    1.0000 </r>
       <r>    2.6094    1.0000 </r>
       <r>    2.6094    1.0000 </r>
       <r>    2.6094    1.0000 </r>
       <r>    2.6094    1.0000 </r>
       <r>    2.7010    1.0000 </r>
       <r>    2.7010    1.0000 </r>
       <r>    2.7010    1.0000 </r>
       <r>    2.7010    1.0000 </r>
       <r>    2.9004    1.0000 </r>
       <r>    2.9004    1.0000 </r>
       <r>    2.9004    1.0000 </r>
       <r>    2.9004    1.0000 </r>
       <r>    5.5574    0.0000 </r>
       <r>    5.5574    0.0000 </r>
       <r>    5.5574    0.0000 </r>
       <r>    5.5574    0.0000 </r>
       <r>    5.9735    0.0000 </r>
       <r>    5.9735    0.0000 </r>
       <r>    5.9735    0.0000 </r>
       <r>    5.9735    0.0000 </r>
       <r>    5.9735    0.0000 </r>
       <r>    5.9735    0.0000 </r>
       <r>    5.9735    0.0000 </r>
       <r>    5.9735    0.0000 </r>
       <r>    6.1255    0.0000 </r>
       <r>    6.1255    0.0000 </r>
       <r>    6.1255    0.0000 </r>
       <r>    6.1255    0.0000 </r>
       <r>    6.3414    0.0000 </r>
       <r>    6.3414    0.0000 </r>
       <r>    6.3414    0.0000 </r>
       <r>    6.3414    0.0000 </r>
       <r>    6.3414    0.0000 </r>
       <r>    6.3414    0.0000 </r>
       <r>    6.3414    0.0000 </r>
       <r>    6.3414    0.0000 </r>
       <r>    6.5011    0.0000 </r>
       <r>    6.5011    0.0000 </r>
       <r>    6.5011    0.0000 </r>
       <r>    6.5011    0.0000 </r>
       <r>    6.5635    0.0000 </r>
       <r>    6.5635    0.0000 </r>
       <r>    6.5636    0.0000 </r>
       <r>    6.5636    0.0000 </r>
       <r>    6.8677    0.0000 </r>
       <r>    6.8677    0.0000 </r>
       <r>    6.8677    0.0000 </r>
       <r>    6.8677    0.0000 </r>
       <r>    7.0263    0.0000 </r>
       <r>    7.0263    0.0000 </r>
       <r>    7.0263    0.0000 </r>
       <r>    7.0263    0.0000 </r>
       <r>    7.0466    0.0000 </r>
       <r>    7.0466    0.0000 </r>
       <r>    7.0466    0.0000 </r>
       <r>    7.0466    0.0000 </r>
       <r>    7.4728    0.0000 </r>
       <r>    7.4728    0.0000 </r>
       <r>    7.4728    0.0000 </r>
       <r>    7.4728    0.0000 </r>
       <r>    7.4728    0.0000 </r>
       <r>    7.4728    0.0000 </r>
       <r>    7.4728    0.0000 </r>
       <r>    7.4728    0.0000 </r>
       <r>    7.5248    0.0000 </r>
       <r>    7.5248    0.0000 </r>
       <r>    7.5248    0.0000 </r>
       <r>    7.5248    0.0000 </r>
       <r>    7.5691    0.0000 </r>
       <r>    7.5691    0.0000 </r>
       <r>    7.5691    0.0000 </r>
       <r>    7.5691    0.0000 </r>
       <r>    7.8007    0.0000 </r>
       <r>    7.8007    0.0000 </r>
       <r>    7.8007    0.0000 </r>
       <r>    7.8007    0.0000 </r>
       <r>    8.0554    0.0000 </r>
       <r>    8.0554    0.0000 </r>
       <r>    8.0554    0.0000 </r>
       <r>    8.0554    0.0000 </r>
       <r>    8.0554    0.0000 </r>
       <r>    8.0554    0.0000 </r>
       <r>    8.0554    0.0000 </r>
       <r>    8.0554    0.0000 </r>
       <r>    8.0778    0.0000 </r>
       <r>    8.0778    0.0000 </r>
       <r>    8.0778    0.0000 </r>
       <r>    8.0778    0.0000 </r>
       <r>    8.4623    0.0000 </r>
       <r>    8.4623    0.0000 </r>
       <r>    8.4623    0.0000 </r>
       <r>    8.4623    0.0000 </r>
       <r>    8.4623    0.0000 </r>
       <r>    8.4623    0.0000 </r>
       <r>    8.4623    0.0000 </r>
       <r>    8.4623    0.0000 </r>
       <r>    8.6321    0.0000 </r>
       <r>    8.6321    0.0000 </r>
       <r>    8.6321    0.0000 </r>
       <r>    8.6321    0.0000 </r>
       <r>    8.7336    0.0000 </r>
       <r>    8.7336    0.0000 </r>
       <r>    8.7336    0.0000 </r>
       <r>    8.7336    0.0000 </r>
       <r>    8.7336    0.0000 </r>
       <r>    8.7336    0.0000 </r>
       <r>    8.7336    0.0000 </r>
       <r>    8.7336    0.0000 </r>
       <r>    8.7359    0.0000 </r>
       <r>    8.7359    0.0000 </r>
       <r>    8.7359    0.0000 </r>
       <r>    8.7359    0.0000 </r>
       <r>    8.9241    0.0000 </r>
       <r>    8.9241    0.0000 </r>
       <r>    8.9241    0.0000 </r>
       <r>    8.9241    0.0000 </r>
       <r>    8.9241    0.0000 </r>
       <r>    8.9242    0.0000 </r>
       <r>    8.9242    0.0000 </r>
       <r>    8.9248    0.0000 </r>
       <r>    9.0301    0.0000 </r>
       <r>    9.0303    0.0000 </r>
       <r>    9.0305    0.0000 </r>
       <r>    9.0333    0.0000 </r>
       <r>    9.1884    0.0000 </r>
       <r>    9.1904    0.0000 </r>
       <r>    9.2020    0.0000 </r>
       <r>    9.2578    0.0000 </r>
      </set>
      <set comment="kpoint 6">
       <r>  -13.6531    1.0000 </r>
       <r>  -13.6531    1.0000 </r>
       <r>  -13.6531    1.0000 </r>
       <r>  -13.6531    1.0000 </r>
       <r>  -13.6531    1.0000 </r>
       <r>  -13.6531    1.0000 </r>
       <r>  -13.6531    1.0000 </r>
       <r>  -13.6531    1.0000 </r>
       <r>  -13.6494    1.0000 </r>
       <r>  -13.6494    1.0000 </r>
       <r>  -13.6494    1.0000 </r>
       <r>  -13.6494    1.0000 </r>
       <r>  -13.6494    1.0000 </r>
       <r>  -13.6494    1.0000 </r>
       <r>  -13.6494    1.0000 </r>
       <r>  -13.6494    1.0000 </r>
       <r>  -13.6483    1.0000 </r>
       <r>  -13.6483    1.0000 </r>
       <r>  -13.6483    1.0000 </r>
       <r>  -13.6483    1.0000 </r>
       <r>  -13.6483    1.0000 </r>
       <r>  -13.6483    1.0000 </r>
       <r>  -13.6483    1.0000 </r>
       <r>  -13.6483    1.0000 </r>
       <r>  -13.6430    1.0000 </r>
       <r>  -13.6430    1.0000 </r>
       <r>  -13.6430    1.0000 </r>
       <r>  -13.6430    1.0000 </r>
       <r>  -13.6430    1.0000 </r>
       <r>  -13.6430    1.0000 </r>
       <r>  -13.6430    1.0000 </r>
       <r>  -13.6430    1.0000 </r>
       <r>  -13.6010    1.0000 </r>
       <r>  -13.6010    1.0000 </r>
       <r>  -13.6010    1.0000 </r>
       <r>  -13.6010    1.0000 </r>
       <r>  -13.6010    1.0000 </r>
       <r>  -13.6010    1.0000 </r>
       <r>  -13.6010    1.0000 </r>
       <r>  -13.6010    1.0000 </r>
       <r>  -13.5622    1.0000 </r>
       <r>  -13.5622    1.0000 </r>
       <r>  -13.5622    1.0000 </r>
       <r>  -13.5622    1.0000 </r>
       <r>  -13.5622    1.0000 </r>
       <r>  -13.5622    1.0000 </r>
       <r>  -13.5622    1.0000 </r>
       <r>  -13.5622    1.0000 </r>
       <r>  -13.4884    1.0000 </r>
       <r>  -13.4884    1.0000 </r>
       <r>  -13.4884    1.0000 </r>
       <r>  -13.4884    1.0000 </r>
       <r>  -13.4884    1.0000 </r>
       <r>  -13.4884    1.0000 </r>
       <r>  -13.4884    1.0000 </r>
       <r>  -13.4884    1.0000 </r>
       <r>  -13.4262    1.0000 </r>
       <r>  -13.4262    1.0000 </r>
       <r>  -13.4262    1.0000 </r>
       <r>  -13.4262    1.0000 </r>
       <r>  -13.4262    1.0000 </r>
       <r>  -13.4262    1.0000 </r>
       <r>  -13.4262    1.0000 </r>
       <r>  -13.4262    1.0000 </r>
       <r>  -13.3779    1.0000 </r>
       <r>  -13.3779    1.0000 </r>
       <r>  -13.3779    1.0000 </r>
       <r>  -13.3779    1.0000 </r>
       <r>  -13.3779    1.0000 </r>
       <r>  -13.3779    1.0000 </r>
       <r>  -13.3779    1.0000 </r>
       <r>  -13.3779    1.0000 </r>
       <r>  -13.3634    1.0000 </r>
       <r>  -13.3634    1.0000 </r>
       <r>  -13.3634    1.0000 </r>
       <r>  -13.3634    1.0000 </r>
       <r>  -13.3634    1.0000 </r>
       <r>  -13.3634    1.0000 </r>
       <r>  -13.3634    1.0000 </r>
       <r>  -13.3634    1.0000 </r>
       <r>  -13.3632    1.0000 </r>
       <r>  -13.3632    1.0000 </r>
       <r>  -13.3632    1.0000 </r>
       <r>  -13.3632    1.0000 </r>
       <r>  -13.3632    1.0000 </r>
       <r>  -13.3632    1.0000 </r>
       <r>  -13.3632    1.0000 </r>
       <r>  -13.3632    1.0000 </r>
       <r>  -13.3564    1.0000 </r>
       <r>  -13.3564    1.0000 </r>
       <r>  -13.3564    1.0000 </r>
       <r>  -13.3564    1.0000 </r>
       <r>  -13.3564    1.0000 </r>
       <r>  -13.3564    1.0000 </r>
       <r>  -13.3564    1.0000 </r>
       <r>  -13.3564    1.0000 </r>
       <r>  -13.2712    1.0000 </r>
       <r>  -13.2712    1.0000 </r>
       <r>  -13.2712    1.0000 </r>
       <r>  -13.2712    1.0000 </r>
       <r>  -13.2712    1.0000 </r>
       <r>  -13.2712    1.0000 </r>
       <r>  -13.2712    1.0000 </r>
       <r>  -13.2712    1.0000 </r>
       <r>  -13.2686    1.0000 </r>
       <r>  -13.2686    1.0000 </r>
       <r>  -13.2686    1.0000 </r>
       <r>  -13.2686    1.0000 </r>
       <r>  -13.2686    1.0000 </r>
       <r>  -13.2686    1.0000 </r>
       <r>  -13.2686    1.0000 </r>
       <r>  -13.2686    1.0000 </r>
       <r>  -13.2661    1.0000 </r>
       <r>  -13.2661    1.0000 </r>
       <r>  -13.2661    1.0000 </r>
       <r>  -13.2661    1.0000 </r>
       <r>  -13.2661    1.0000 </r>
       <r>  -13.2661    1.0000 </r>
       <r>  -13.2661    1.0000 </r>
       <r>  -13.2661    1.0000 </r>
       <r>  -13.2575    1.0000 </r>
       <r>  -13.2575    1.0000 </r>
       <r>  -13.2575    1.0000 </r>
       <r>  -13.2575    1.0000 </r>
       <r>  -13.2575    1.0000 </r>
       <r>  -13.2575    1.0000 </r>
       <r>  -13.2575    1.0000 </r>
       <r>  -13.2575    1.0000 </r>
       <r>  -13.2567    1.0000 </r>
       <r>  -13.2567    1.0000 </r>
       <r>  -13.2567    1.0000 </r>
       <r>  -13.2567    1.0000 </r>
       <r>  -13.2567    1.0000 </r>
       <r>  -13.2567    1.0000 </r>
       <r>  -13.2567    1.0000 </r>
       <r>  -13.2567    1.0000 </r>
       <r>  -13.2465    1.0000 </r>
       <r>  -13.2465    1.0000 </r>
       <r>  -13.2465    1.0000 </r>
       <r>  -13.2465    1.0000 </r>
       <r>  -13.2465    1.0000 </r>
       <r>  -13.2465    1.0000 </r>
       <r>  -13.2465    1.0000 </r>
       <r>  -13.2465    1.0000 </r>
       <r>  -13.2403    1.0000 </r>
       <r>  -13.2403    1.0000 </r>
       <r>  -13.2403    1.0000 </r>
       <r>  -13.2403    1.0000 </r>
       <r>  -13.2403    1.0000 </r>
       <r>  -13.2403    1.0000 </r>
       <r>  -13.2403    1.0000 </r>
       <r>  -13.2403    1.0000 </r>
       <r>  -13.2398    1.0000 </r>
       <r>  -13.2398    1.0000 </r>
       <r>  -13.2398    1.0000 </r>
       <r>  -13.2398    1.0000 </r>
       <r>  -13.2398    1.0000 </r>
       <r>  -13.2398    1.0000 </r>
       <r>  -13.2398    1.0000 </r>
       <r>  -13.2398    1.0000 </r>
       <r>  -11.5862    1.0000 </r>
       <r>  -11.5862    1.0000 </r>
       <r>  -11.5862    1.0000 </r>
       <r>  -11.5862    1.0000 </r>
       <r>  -11.5862    1.0000 </r>
       <r>  -11.5862    1.0000 </r>
       <r>  -11.5862    1.0000 </r>
       <r>  -11.5862    1.0000 </r>
       <r>  -11.2836    1.0000 </r>
       <r>  -11.2836    1.0000 </r>
       <r>  -11.2836    1.0000 </r>
       <r>  -11.2836    1.0000 </r>
       <r>  -11.2836    1.0000 </r>
       <r>  -11.2836    1.0000 </r>
       <r>  -11.2836    1.0000 </r>
       <r>  -11.2836    1.0000 </r>
       <r>  -10.8541    1.0000 </r>
       <r>  -10.8541    1.0000 </r>
       <r>  -10.8541    1.0000 </r>
       <r>  -10.8541    1.0000 </r>
       <r>  -10.8541    1.0000 </r>
       <r>  -10.8541    1.0000 </r>
       <r>  -10.8541    1.0000 </r>
       <r>  -10.8541    1.0000 </r>
       <r>  -10.6085    1.0000 </r>
       <r>  -10.6085    1.0000 </r>
       <r>  -10.6085    1.0000 </r>
       <r>  -10.6085    1.0000 </r>
       <r>  -10.6085    1.0000 </r>
       <r>  -10.6085    1.0000 </r>
       <r>  -10.6085    1.0000 </r>
       <r>  -10.6085    1.0000 </r>
       <r>  -10.5611    1.0000 </r>
       <r>  -10.5611    1.0000 </r>
       <r>  -10.5611    1.0000 </r>
       <r>  -10.5611    1.0000 </r>
       <r>  -10.5611    1.0000 </r>
       <r>  -10.5611    1.0000 </r>
       <r>  -10.5611    1.0000 </r>
       <r>  -10.5611    1.0000 </r>
       <r>  -10.5410    1.0000 </r>
       <r>  -10.5410    1.0000 </r>
       <r>  -10.5410    1.0000 </r>
       <r>  -10.5410    1.0000 </r>
       <r>  -10.5410    1.0000 </r>
       <r>  -10.5410    1.0000 </r>
       <r>  -10.5410    1.0000 </r>
       <r>  -10.5410    1.0000 </r>
       <r>  -10.5404    1.0000 </r>
       <r>  -10.5404    1.0000 </r>
       <r>  -10.5404    1.0000 </r>
       <r>  -10.5404    1.0000 </r>
       <r>  -10.5404    1.0000 </r>
       <r>  -10.5404    1.0000 </r>
       <r>  -10.5404    1.0000 </r>
       <r>  -10.5404    1.0000 </r>
       <r>  -10.4241    1.0000 </r>
       <r>  -10.4241    1.0000 </r>
       <r>  -10.4241    1.0000 </r>
       <r>  -10.4241    1.0000 </r>
       <r>  -10.4241    1.0000 </r>
       <r>  -10.4241    1.0000 </r>
       <r>  -10.4241    1.0000 </r>
       <r>  -10.4241    1.0000 </r>
       <r>   -3.6935    1.0000 </r>
       <r>   -3.6935    1.0000 </r>
       <r>   -3.6935    1.0000 </r>
       <r>   -3.6935    1.0000 </r>
       <r>   -3.6935    1.0000 </r>
       <r>   -3.6935    1.0000 </r>
       <r>   -3.6935    1.0000 </r>
       <r>   -3.6935    1.0000 </r>
       <r>   -3.4500    1.0000 </r>
       <r>   -3.4500    1.0000 </r>
       <r>   -3.4500    1.0000 </r>
       <r>   -3.4500    1.0000 </r>
       <r>   -3.4500    1.0000 </r>
       <r>   -3.4500    1.0000 </r>
       <r>   -3.4500    1.0000 </r>
       <r>   -3.4500    1.0000 </r>
       <r>   -3.1498    1.0000 </r>
       <r>   -3.1498    1.0000 </r>
       <r>   -3.1498    1.0000 </r>
       <r>   -3.1498    1.0000 </r>
       <r>   -3.1498    1.0000 </r>
       <r>   -3.1498    1.0000 </r>
       <r>   -3.1498    1.0000 </r>
       <r>   -3.1498    1.0000 </r>
       <r>   -3.0676    1.0000 </r>
       <r>   -3.0676    1.0000 </r>
       <r>   -3.0676    1.0000 </r>
       <r>   -3.0676    1.0000 </r>
       <r>   -3.0676    1.0000 </r>
       <r>   -3.0676    1.0000 </r>
       <r>   -3.0676    1.0000 </r>
       <r>   -3.0676    1.0000 </r>
       <r>   -1.9710    1.0000 </r>
       <r>   -1.9710    1.0000 </r>
       <r>   -1.9710    1.0000 </r>
       <r>   -1.9710    1.0000 </r>
       <r>   -1.9710    1.0000 </r>
       <r>   -1.9710    1.0000 </r>
       <r>   -1.9710    1.0000 </r>
       <r>   -1.9710    1.0000 </r>
       <r>   -1.8965    1.0000 </r>
       <r>   -1.8965    1.0000 </r>
       <r>   -1.8965    1.0000 </r>
       <r>   -1.8965    1.0000 </r>
       <r>   -1.8965    1.0000 </r>
       <r>   -1.8965    1.0000 </r>
       <r>   -1.8965    1.0000 </r>
       <r>   -1.8965    1.0000 </r>
       <r>   -1.5437    1.0000 </r>
       <r>   -1.5437    1.0000 </r>
       <r>   -1.5437    1.0000 </r>
       <r>   -1.5437    1.0000 </r>
       <r>   -1.5437    1.0000 </r>
       <r>   -1.5437    1.0000 </r>
       <r>   -1.5437    1.0000 </r>
       <r>   -1.5437    1.0000 </r>
       <r>   -1.3438    1.0000 </r>
       <r>   -1.3438    1.0000 </r>
       <r>   -1.3438    1.0000 </r>
       <r>   -1.3438    1.0000 </r>
       <r>   -1.3438    1.0000 </r>
       <r>   -1.3438    1.0000 </r>
       <r>   -1.3438    1.0000 </r>
       <r>   -1.3438    1.0000 </r>
       <r>   -1.1554    1.0000 </r>
       <r>   -1.1554    1.0000 </r>
       <r>   -1.1554    1.0000 </r>
       <r>   -1.1554    1.0000 </r>
       <r>   -1.1554    1.0000 </r>
       <r>   -1.1554    1.0000 </r>
       <r>   -1.1554    1.0000 </r>
       <r>   -1.1554    1.0000 </r>
       <r>   -0.8196    1.0000 </r>
       <r>   -0.8196    1.0000 </r>
       <r>   -0.8196    1.0000 </r>
       <r>   -0.8196    1.0000 </r>
       <r>   -0.8196    1.0000 </r>
       <r>   -0.8196    1.0000 </r>
       <r>   -0.8196    1.0000 </r>
       <r>   -0.8196    1.0000 </r>
       <r>   -0.7831    1.0000 </r>
       <r>   -0.7831    1.0000 </r>
       <r>   -0.7831    1.0000 </r>
       <r>   -0.7831    1.0000 </r>
       <r>   -0.7831    1.0000 </r>
       <r>   -0.7831    1.0000 </r>
       <r>   -0.7831    1.0000 </r>
       <r>   -0.7831    1.0000 </r>
       <r>   -0.7099    1.0000 </r>
       <r>   -0.7099    1.0000 </r>
       <r>   -0.7099    1.0000 </r>
       <r>   -0.7099    1.0000 </r>
       <r>   -0.7099    1.0000 </r>
       <r>   -0.7099    1.0000 </r>
       <r>   -0.7099    1.0000 </r>
       <r>   -0.7099    1.0000 </r>
       <r>   -0.6953    1.0000 </r>
       <r>   -0.6953    1.0000 </r>
       <r>   -0.6953    1.0000 </r>
       <r>   -0.6953    1.0000 </r>
       <r>   -0.6953    1.0000 </r>
       <r>   -0.6953    1.0000 </r>
       <r>   -0.6953    1.0000 </r>
       <r>   -0.6953    1.0000 </r>
       <r>   -0.5572    1.0000 </r>
       <r>   -0.5572    1.0000 </r>
       <r>   -0.5572    1.0000 </r>
       <r>   -0.5572    1.0000 </r>
       <r>   -0.5572    1.0000 </r>
       <r>   -0.5571    1.0000 </r>
       <r>   -0.5571    1.0000 </r>
       <r>   -0.5571    1.0000 </r>
       <r>   -0.4124    1.0000 </r>
       <r>   -0.4124    1.0000 </r>
       <r>   -0.4124    1.0000 </r>
       <r>   -0.4124    1.0000 </r>
       <r>   -0.4124    1.0000 </r>
       <r>   -0.4124    1.0000 </r>
       <r>   -0.4124    1.0000 </r>
       <r>   -0.4124    1.0000 </r>
       <r>   -0.4045    1.0000 </r>
       <r>   -0.4045    1.0000 </r>
       <r>   -0.4045    1.0000 </r>
       <r>   -0.4045    1.0000 </r>
       <r>   -0.4045    1.0000 </r>
       <r>   -0.4045    1.0000 </r>
       <r>   -0.4044    1.0000 </r>
       <r>   -0.4044    1.0000 </r>
       <r>   -0.3714    1.0000 </r>
       <r>   -0.3714    1.0000 </r>
       <r>   -0.3714    1.0000 </r>
       <r>   -0.3714    1.0000 </r>
       <r>   -0.3714    1.0000 </r>
       <r>   -0.3714    1.0000 </r>
       <r>   -0.3714    1.0000 </r>
       <r>   -0.3714    1.0000 </r>
       <r>   -0.3259    1.0000 </r>
       <r>   -0.3259    1.0000 </r>
       <r>   -0.3259    1.0000 </r>
       <r>   -0.3259    1.0000 </r>
       <r>   -0.3259    1.0000 </r>
       <r>   -0.3259    1.0000 </r>
       <r>   -0.3259    1.0000 </r>
       <r>   -0.3259    1.0000 </r>
       <r>   -0.2161    1.0000 </r>
       <r>   -0.2161    1.0000 </r>
       <r>   -0.2161    1.0000 </r>
       <r>   -0.2161    1.0000 </r>
       <r>   -0.2161    1.0000 </r>
       <r>   -0.2160    1.0000 </r>
       <r>   -0.2160    1.0000 </r>
       <r>   -0.2160    1.0000 </r>
       <r>   -0.2043    1.0000 </r>
       <r>   -0.2043    1.0000 </r>
       <r>   -0.2043    1.0000 </r>
       <r>   -0.2043    1.0000 </r>
       <r>   -0.2043    1.0000 </r>
       <r>   -0.2043    1.0000 </r>
       <r>   -0.2043    1.0000 </r>
       <r>   -0.2043    1.0000 </r>
       <r>   -0.0485    1.0000 </r>
       <r>   -0.0485    1.0000 </r>
       <r>   -0.0485    1.0000 </r>
       <r>   -0.0484    1.0000 </r>
       <r>   -0.0484    1.0000 </r>
       <r>   -0.0484    1.0000 </r>
       <r>   -0.0484    1.0000 </r>
       <r>   -0.0484    1.0000 </r>
       <r>   -0.0283    1.0000 </r>
       <r>   -0.0283    1.0000 </r>
       <r>   -0.0283    1.0000 </r>
       <r>   -0.0283    1.0000 </r>
       <r>   -0.0283    1.0000 </r>
       <r>   -0.0283    1.0000 </r>
       <r>   -0.0283    1.0000 </r>
       <r>   -0.0283    1.0000 </r>
       <r>   -0.0215    1.0000 </r>
       <r>   -0.0215    1.0000 </r>
       <r>   -0.0215    1.0000 </r>
       <r>   -0.0215    1.0000 </r>
       <r>   -0.0215    1.0000 </r>
       <r>   -0.0215    1.0000 </r>
       <r>   -0.0215    1.0000 </r>
       <r>   -0.0215    1.0000 </r>
       <r>    0.1593    1.0000 </r>
       <r>    0.1593    1.0000 </r>
       <r>    0.1593    1.0000 </r>
       <r>    0.1593    1.0000 </r>
       <r>    0.1593    1.0000 </r>
       <r>    0.1593    1.0000 </r>
       <r>    0.1593    1.0000 </r>
       <r>    0.1593    1.0000 </r>
       <r>    0.7506    1.0000 </r>
       <r>    0.7506    1.0000 </r>
       <r>    0.7506    1.0000 </r>
       <r>    0.7506    1.0000 </r>
       <r>    0.7506    1.0000 </r>
       <r>    0.7507    1.0000 </r>
       <r>    0.7507    1.0000 </r>
       <r>    0.7507    1.0000 </r>
       <r>    0.8033    1.0000 </r>
       <r>    0.8033    1.0000 </r>
       <r>    0.8033    1.0000 </r>
       <r>    0.8033    1.0000 </r>
       <r>    0.8033    1.0000 </r>
       <r>    0.8033    1.0000 </r>
       <r>    0.8033    1.0000 </r>
       <r>    0.8033    1.0000 </r>
       <r>    0.8096    1.0000 </r>
       <r>    0.8096    1.0000 </r>
       <r>    0.8096    1.0000 </r>
       <r>    0.8096    1.0000 </r>
       <r>    0.8096    1.0000 </r>
       <r>    0.8096    1.0000 </r>
       <r>    0.8096    1.0000 </r>
       <r>    0.8096    1.0000 </r>
       <r>    0.9014    1.0000 </r>
       <r>    0.9014    1.0000 </r>
       <r>    0.9014    1.0000 </r>
       <r>    0.9014    1.0000 </r>
       <r>    0.9014    1.0000 </r>
       <r>    0.9015    1.0000 </r>
       <r>    0.9015    1.0000 </r>
       <r>    0.9015    1.0000 </r>
       <r>    0.9931    1.0000 </r>
       <r>    0.9932    1.0000 </r>
       <r>    0.9932    1.0000 </r>
       <r>    0.9932    1.0000 </r>
       <r>    0.9932    1.0000 </r>
       <r>    0.9932    1.0000 </r>
       <r>    0.9932    1.0000 </r>
       <r>    0.9932    1.0000 </r>
       <r>    1.0070    1.0000 </r>
       <r>    1.0070    1.0000 </r>
       <r>    1.0070    1.0000 </r>
       <r>    1.0070    1.0000 </r>
       <r>    1.0070    1.0000 </r>
       <r>    1.0071    1.0000 </r>
       <r>    1.0071    1.0000 </r>
       <r>    1.0071    1.0000 </r>
       <r>    1.0141    1.0000 </r>
       <r>    1.0141    1.0000 </r>
       <r>    1.0141    1.0000 </r>
       <r>    1.0141    1.0000 </r>
       <r>    1.0141    1.0000 </r>
       <r>    1.0141    1.0000 </r>
       <r>    1.0141    1.0000 </r>
       <r>    1.0141    1.0000 </r>
       <r>    1.0231    1.0000 </r>
       <r>    1.0231    1.0000 </r>
       <r>    1.0231    1.0000 </r>
       <r>    1.0232    1.0000 </r>
       <r>    1.0232    1.0000 </r>
       <r>    1.0232    1.0000 </r>
       <r>    1.0232    1.0000 </r>
       <r>    1.0232    1.0000 </r>
       <r>    1.2788    1.0000 </r>
       <r>    1.2788    1.0000 </r>
       <r>    1.2788    1.0000 </r>
       <r>    1.2788    1.0000 </r>
       <r>    1.2788    1.0000 </r>
       <r>    1.2788    1.0000 </r>
       <r>    1.2788    1.0000 </r>
       <r>    1.2788    1.0000 </r>
       <r>    1.2901    1.0000 </r>
       <r>    1.2901    1.0000 </r>
       <r>    1.2901    1.0000 </r>
       <r>    1.2901    1.0000 </r>
       <r>    1.2901    1.0000 </r>
       <r>    1.2901    1.0000 </r>
       <r>    1.2901    1.0000 </r>
       <r>    1.2901    1.0000 </r>
       <r>    1.4725    1.0000 </r>
       <r>    1.4725    1.0000 </r>
       <r>    1.4725    1.0000 </r>
       <r>    1.4725    1.0000 </r>
       <r>    1.4725    1.0000 </r>
       <r>    1.4726    1.0000 </r>
       <r>    1.4726    1.0000 </r>
       <r>    1.4726    1.0000 </r>
       <r>    1.5015    1.0000 </r>
       <r>    1.5015    1.0000 </r>
       <r>    1.5015    1.0000 </r>
       <r>    1.5015    1.0000 </r>
       <r>    1.5015    1.0000 </r>
       <r>    1.5015    1.0000 </r>
       <r>    1.5015    1.0000 </r>
       <r>    1.5016    1.0000 </r>
       <r>    1.6110    1.0000 </r>
       <r>    1.6110    1.0000 </r>
       <r>    1.6111    1.0000 </r>
       <r>    1.6111    1.0000 </r>
       <r>    1.6111    1.0000 </r>
       <r>    1.6111    1.0000 </r>
       <r>    1.6111    1.0000 </r>
       <r>    1.6111    1.0000 </r>
       <r>    1.7871    1.0000 </r>
       <r>    1.7871    1.0000 </r>
       <r>    1.7871    1.0000 </r>
       <r>    1.7872    1.0000 </r>
       <r>    1.7872    1.0000 </r>
       <r>    1.7872    1.0000 </r>
       <r>    1.7872    1.0000 </r>
       <r>    1.7872    1.0000 </r>
       <r>    1.8763    1.0000 </r>
       <r>    1.8763    1.0000 </r>
       <r>    1.8763    1.0000 </r>
       <r>    1.8763    1.0000 </r>
       <r>    1.8763    1.0000 </r>
       <r>    1.8763    1.0000 </r>
       <r>    1.8763    1.0000 </r>
       <r>    1.8763    1.0000 </r>
       <r>    1.9367    1.0000 </r>
       <r>    1.9367    1.0000 </r>
       <r>    1.9368    1.0000 </r>
       <r>    1.9368    1.0000 </r>
       <r>    1.9368    1.0000 </r>
       <r>    1.9368    1.0000 </r>
       <r>    1.9368    1.0000 </r>
       <r>    1.9368    1.0000 </r>
       <r>    2.4421    1.0000 </r>
       <r>    2.4421    1.0000 </r>
       <r>    2.4421    1.0000 </r>
       <r>    2.4421    1.0000 </r>
       <r>    2.4422    1.0000 </r>
       <r>    2.4422    1.0000 </r>
       <r>    2.4422    1.0000 </r>
       <r>    2.4422    1.0000 </r>
       <r>    2.5191    1.0000 </r>
       <r>    2.5191    1.0000 </r>
       <r>    2.5191    1.0000 </r>
       <r>    2.5191    1.0000 </r>
       <r>    2.5191    1.0000 </r>
       <r>    2.5191    1.0000 </r>
       <r>    2.5191    1.0000 </r>
       <r>    2.5191    1.0000 </r>
       <r>    2.5539    1.0000 </r>
       <r>    2.5539    1.0000 </r>
       <r>    2.5539    1.0000 </r>
       <r>    2.5539    1.0000 </r>
       <r>    2.5539    1.0000 </r>
       <r>    2.5540    1.0000 </r>
       <r>    2.5540    1.0000 </r>
       <r>    2.5540    1.0000 </r>
       <r>    2.8738    1.0000 </r>
       <r>    2.8738    1.0000 </r>
       <r>    2.8738    1.0000 </r>
       <r>    2.8738    1.0000 </r>
       <r>    2.8738    1.0000 </r>
       <r>    2.8738    1.0000 </r>
       <r>    2.8738    1.0000 </r>
       <r>    2.8738    1.0000 </r>
       <r>    5.6574    0.0000 </r>
       <r>    5.6574    0.0000 </r>
       <r>    5.6574    0.0000 </r>
       <r>    5.6574    0.0000 </r>
       <r>    5.6574    0.0000 </r>
       <r>    5.6574    0.0000 </r>
       <r>    5.6574    0.0000 </r>
       <r>    5.6574    0.0000 </r>
       <r>    5.7817    0.0000 </r>
       <r>    5.7817    0.0000 </r>
       <r>    5.7817    0.0000 </r>
       <r>    5.7817    0.0000 </r>
       <r>    5.7817    0.0000 </r>
       <r>    5.7817    0.0000 </r>
       <r>    5.7817    0.0000 </r>
       <r>    5.7817    0.0000 </r>
       <r>    6.3937    0.0000 </r>
       <r>    6.3937    0.0000 </r>
       <r>    6.3937    0.0000 </r>
       <r>    6.3937    0.0000 </r>
       <r>    6.3937    0.0000 </r>
       <r>    6.3937    0.0000 </r>
       <r>    6.3937    0.0000 </r>
       <r>    6.3937    0.0000 </r>
       <r>    6.5113    0.0000 </r>
       <r>    6.5113    0.0000 </r>
       <r>    6.5113    0.0000 </r>
       <r>    6.5113    0.0000 </r>
       <r>    6.5113    0.0000 </r>
       <r>    6.5113    0.0000 </r>
       <r>    6.5113    0.0000 </r>
       <r>    6.5113    0.0000 </r>
       <r>    7.0339    0.0000 </r>
       <r>    7.0340    0.0000 </r>
       <r>    7.0340    0.0000 </r>
       <r>    7.0340    0.0000 </r>
       <r>    7.0340    0.0000 </r>
       <r>    7.0340    0.0000 </r>
       <r>    7.0340    0.0000 </r>
       <r>    7.0340    0.0000 </r>
       <r>    7.2631    0.0000 </r>
       <r>    7.2631    0.0000 </r>
       <r>    7.2631    0.0000 </r>
       <r>    7.2631    0.0000 </r>
       <r>    7.2631    0.0000 </r>
       <r>    7.2631    0.0000 </r>
       <r>    7.2631    0.0000 </r>
       <r>    7.2631    0.0000 </r>
       <r>    7.3076    0.0000 </r>
       <r>    7.3076    0.0000 </r>
       <r>    7.3076    0.0000 </r>
       <r>    7.3076    0.0000 </r>
       <r>    7.3076    0.0000 </r>
       <r>    7.3076    0.0000 </r>
       <r>    7.3076    0.0000 </r>
       <r>    7.3076    0.0000 </r>
       <r>    7.3843    0.0000 </r>
       <r>    7.3843    0.0000 </r>
       <r>    7.3843    0.0000 </r>
       <r>    7.3843    0.0000 </r>
       <r>    7.3843    0.0000 </r>
       <r>    7.3843    0.0000 </r>
       <r>    7.3843    0.0000 </r>
       <r>    7.3843    0.0000 </r>
       <r>    8.0675    0.0000 </r>
       <r>    8.0675    0.0000 </r>
       <r>    8.0675    0.0000 </r>
       <r>    8.0675    0.0000 </r>
       <r>    8.0675    0.0000 </r>
       <r>    8.0675    0.0000 </r>
       <r>    8.0675    0.0000 </r>
       <r>    8.0675    0.0000 </r>
       <r>    8.3903    0.0000 </r>
       <r>    8.3903    0.0000 </r>
       <r>    8.3903    0.0000 </r>
       <r>    8.3903    0.0000 </r>
       <r>    8.3903    0.0000 </r>
       <r>    8.3903    0.0000 </r>
       <r>    8.3903    0.0000 </r>
       <r>    8.3903    0.0000 </r>
       <r>    8.4852    0.0000 </r>
       <r>    8.4852    0.0000 </r>
       <r>    8.4852    0.0000 </r>
       <r>    8.4852    0.0000 </r>
       <r>    8.4852    0.0000 </r>
       <r>    8.4852    0.0000 </r>
       <r>    8.4852    0.0000 </r>
       <r>    8.4852    0.0000 </r>
       <r>    8.7937    0.0000 </r>
       <r>    8.7937    0.0000 </r>
       <r>    8.7937    0.0000 </r>
       <r>    8.7937    0.0000 </r>
       <r>    8.7937    0.0000 </r>
       <r>    8.7937    0.0000 </r>
       <r>    8.7937    0.0000 </r>
       <r>    8.7937    0.0000 </r>
       <r>    9.2332    0.0000 </r>
       <r>    9.2333    0.0000 </r>
       <r>    9.2335    0.0000 </r>
       <r>    9.2341    0.0000 </r>
       <r>    9.2355    0.0000 </r>
       <r>    9.2364    0.0000 </r>
       <r>    9.2382    0.0000 </r>
       <r>    9.2413    0.0000 </r>
       <r>    9.2696    0.0000 </r>
       <r>    9.2697    0.0000 </r>
       <r>    9.2703    0.0000 </r>
       <r>    9.2708    0.0000 </r>
       <r>    9.2725    0.0000 </r>
       <r>    9.2778    0.0000 </r>
       <r>    9.2791    0.0000 </r>
       <r>    9.3044    0.0000 </r>
       <r>    9.3445    0.0000 </r>
       <r>    9.3459    0.0000 </r>
       <r>    9.3504    0.0000 </r>
       <r>    9.3656    0.0000 </r>
      </set>
     </set>
    </set>
   </array>
  </eigenvalues>
  <separator name="orbital magnetization" >
   <v name="MAGDIPOLOUT">      0.00000000      0.00000000      0.00000000</v>
  </separator>
  <dos>
   <i name="efermi">      3.22245689 </i>
   <total>
    <array>
     <dimension dim="1">gridpoints</dimension>
     <dimension dim="2">spin</dimension>
     <field>energy</field>
     <field>total</field>
     <field>integrated</field>
     <set>
      <set comment="spin 1">
       <r>   -14.8266     0.0000     0.0000 </r>
       <r>   -14.7412     0.0000     0.0000 </r>
       <r>   -14.6558     0.0000     0.0000 </r>
       <r>   -14.5703     0.0000     0.0000 </r>
       <r>   -14.4849     0.0000     0.0000 </r>
       <r>   -14.3994     0.0000     0.0000 </r>
       <r>   -14.3140     0.0000     0.0000 </r>
       <r>   -14.2286     0.0000     0.0000 </r>
       <r>   -14.1431     0.0000     0.0000 </r>
       <r>   -14.0577     0.0000     0.0000 </r>
       <r>   -13.9722     0.0000     0.0000 </r>
       <r>   -13.8868     0.0000     0.0000 </r>
       <r>   -13.8014     0.0000     0.0000 </r>
       <r>   -13.7159     0.0000     0.0000 </r>
       <r>   -13.6305   722.3697    61.7189 </r>
       <r>   -13.5450   324.0297    92.5189 </r>
       <r>   -13.4596   242.3829   113.5124 </r>
       <r>   -13.3742   355.4061   144.8603 </r>
       <r>   -13.2887   460.8051   192.5110 </r>
       <r>   -13.2033  1492.1545   320.0000 </r>
       <r>   -13.1179     0.0000   320.0000 </r>
       <r>   -13.0324     0.0000   320.0000 </r>
       <r>   -12.9470     0.0000   320.0000 </r>
       <r>   -12.8615     0.0000   320.0000 </r>
       <r>   -12.7761     0.0000   320.0000 </r>
       <r>   -12.6907     0.0000   320.0000 </r>
       <r>   -12.6052     0.0000   320.0000 </r>
       <r>   -12.5198     0.0000   320.0000 </r>
       <r>   -12.4343     0.0000   320.0000 </r>
       <r>   -12.3489     0.0000   320.0000 </r>
       <r>   -12.2635     0.0000   320.0000 </r>
       <r>   -12.1780     0.0000   320.0000 </r>
       <r>   -12.0926     0.0000   320.0000 </r>
       <r>   -12.0071     0.0171   320.0015 </r>
       <r>   -11.9217     8.4537   320.7237 </r>
       <r>   -11.8363     0.0000   320.7500 </r>
       <r>   -11.7508    25.6456   322.9411 </r>
       <r>   -11.6654     0.0000   324.2500 </r>
       <r>   -11.5799    54.0819   328.8707 </r>
       <r>   -11.4945     5.8525   329.7500 </r>
       <r>   -11.4091    25.4426   331.9238 </r>
       <r>   -11.3236    61.2775   337.1594 </r>
       <r>   -11.2382    31.3017   340.4244 </r>
       <r>   -11.1527   102.7439   349.2477 </r>
       <r>   -11.0673    24.9579   351.3824 </r>
       <r>   -10.9819     2.5071   352.4642 </r>
       <r>   -10.8964    76.7327   359.0202 </r>
       <r>   -10.8110   116.6283   371.7457 </r>
       <r>   -10.7255     0.1798   372.7654 </r>
       <r>   -10.6401    92.3864   380.6588 </r>
       <r>   -10.5547   254.4177   402.3991 </r>
       <r>   -10.4692   194.7353   421.1613 </r>
       <r>   -10.3838   185.0873   440.1520 </r>
       <r>   -10.2983    51.0306   448.0000 </r>
       <r>   -10.2129     0.0000   448.0000 </r>
       <r>   -10.1275     0.0000   448.0000 </r>
       <r>   -10.0420     0.0000   448.0000 </r>
       <r>    -9.9566     0.0000   448.0000 </r>
       <r>    -9.8712     0.0000   448.0000 </r>
       <r>    -9.7857     0.0000   448.0000 </r>
       <r>    -9.7003     0.0000   448.0000 </r>
       <r>    -9.6148     0.0000   448.0000 </r>
       <r>    -9.5294     0.0000   448.0000 </r>
       <r>    -9.4440     0.0000   448.0000 </r>
       <r>    -9.3585     0.0000   448.0000 </r>
       <r>    -9.2731     0.0000   448.0000 </r>
       <r>    -9.1876     0.0000   448.0000 </r>
       <r>    -9.1022     0.0000   448.0000 </r>
       <r>    -9.0168     0.0000   448.0000 </r>
       <r>    -8.9313     0.0000   448.0000 </r>
       <r>    -8.8459     0.0000   448.0000 </r>
       <r>    -8.7604     0.0000   448.0000 </r>
       <r>    -8.6750     0.0000   448.0000 </r>
       <r>    -8.5896     0.0000   448.0000 </r>
       <r>    -8.5041     0.0000   448.0000 </r>
       <r>    -8.4187     0.0000   448.0000 </r>
       <r>    -8.3332     0.0000   448.0000 </r>
       <r>    -8.2478     0.0000   448.0000 </r>
       <r>    -8.1624     0.0000   448.0000 </r>
       <r>    -8.0769     0.0000   448.0000 </r>
       <r>    -7.9915     0.0000   448.0000 </r>
       <r>    -7.9060     0.0000   448.0000 </r>
       <r>    -7.8206     0.0000   448.0000 </r>
       <r>    -7.7352     0.0000   448.0000 </r>
       <r>    -7.6497     0.0000   448.0000 </r>
       <r>    -7.5643     0.0000   448.0000 </r>
       <r>    -7.4788     0.0000   448.0000 </r>
       <r>    -7.3934     0.0000   448.0000 </r>
       <r>    -7.3080     0.0000   448.0000 </r>
       <r>    -7.2225     0.0000   448.0000 </r>
       <r>    -7.1371     0.0000   448.0000 </r>
       <r>    -7.0516     0.0000   448.0000 </r>
       <r>    -6.9662     0.0000   448.0000 </r>
       <r>    -6.8808     0.0000   448.0000 </r>
       <r>    -6.7953     0.0000   448.0000 </r>
       <r>    -6.7099     0.0000   448.0000 </r>
       <r>    -6.6244     0.0000   448.0000 </r>
       <r>    -6.5390     0.0000   448.0000 </r>
       <r>    -6.4536     0.0000   448.0000 </r>
       <r>    -6.3681     0.0000   448.0000 </r>
       <r>    -6.2827     0.0000   448.0000 </r>
       <r>    -6.1973     0.0000   448.0000 </r>
       <r>    -6.1118     0.0000   448.0000 </r>
       <r>    -6.0264     0.0000   448.0000 </r>
       <r>    -5.9409     0.0000   448.0000 </r>
       <r>    -5.8555     0.0000   448.0000 </r>
       <r>    -5.7701     0.0000   448.0000 </r>
       <r>    -5.6846     0.0000   448.0000 </r>
       <r>    -5.5992     0.0000   448.0000 </r>
       <r>    -5.5137     0.0000   448.0000 </r>
       <r>    -5.4283     0.0000   448.0000 </r>
       <r>    -5.3429     0.0000   448.0000 </r>
       <r>    -5.2574     0.0000   448.0000 </r>
       <r>    -5.1720     0.0000   448.0000 </r>
       <r>    -5.0865     0.0000   448.0000 </r>
       <r>    -5.0011     0.0000   448.0000 </r>
       <r>    -4.9157     0.0000   448.0000 </r>
       <r>    -4.8302     0.0000   448.0000 </r>
       <r>    -4.7448     0.0000   448.0000 </r>
       <r>    -4.6593     0.0000   448.0000 </r>
       <r>    -4.5739     0.0000   448.0000 </r>
       <r>    -4.4885     0.0000   448.0000 </r>
       <r>    -4.4030     0.0000   448.0000 </r>
       <r>    -4.3176     0.0000   448.0000 </r>
       <r>    -4.2321     0.0000   448.0000 </r>
       <r>    -4.1467     0.0000   448.0000 </r>
       <r>    -4.0613     0.0000   448.0000 </r>
       <r>    -3.9758     0.0000   448.0000 </r>
       <r>    -3.8904     2.9265   448.2500 </r>
       <r>    -3.8049     5.8516   448.7500 </r>
       <r>    -3.7195    39.8938   452.1585 </r>
       <r>    -3.6341    23.4060   455.2500 </r>
       <r>    -3.5486   187.8816   471.3025 </r>
       <r>    -3.4632    19.4326   473.4103 </r>
       <r>    -3.3777    61.6448   480.2478 </r>
       <r>    -3.2923    16.2771   481.6408 </r>
       <r>    -3.2069    83.5780   488.7817 </r>
       <r>    -3.1214    58.5197   494.7499 </r>
       <r>    -3.0360    83.0457   501.8454 </r>
       <r>    -2.9505    19.2282   503.4882 </r>
       <r>    -2.8651    45.0926   508.1027 </r>
       <r>    -2.7797    17.5422   511.7516 </r>
       <r>    -2.6942     2.9070   512.0000 </r>
       <r>    -2.6088     0.0000   512.0000 </r>
       <r>    -2.5234     0.0000   512.0000 </r>
       <r>    -2.4379     0.0000   512.0000 </r>
       <r>    -2.3525     0.0000   512.0000 </r>
       <r>    -2.2670     0.0000   512.0000 </r>
       <r>    -2.1816    11.7043   513.0000 </r>
       <r>    -2.0962    46.7989   516.9985 </r>
       <r>    -2.0107    58.5212   522.0000 </r>
       <r>    -1.9253    79.4289   528.7864 </r>
       <r>    -1.8398    23.4078   531.0000 </r>
       <r>    -1.7544    32.1538   533.7472 </r>
       <r>    -1.6690   193.0582   550.5287 </r>
       <r>    -1.5835    17.0016   552.4527 </r>
       <r>    -1.4981    28.6004   555.6936 </r>
       <r>    -1.4126    17.5914   557.2530 </r>
       <r>    -1.3272   138.6481   570.6014 </r>
       <r>    -1.2418    73.9097   577.0990 </r>
       <r>    -1.1563    72.1657   583.4054 </r>
       <r>    -1.0709    80.4280   591.8860 </r>
       <r>    -0.9854    23.9554   593.9328 </r>
       <r>    -0.9000    83.7806   601.0909 </r>
       <r>    -0.8146   120.5054   611.3869 </r>
       <r>    -0.7291   100.3341   620.8488 </r>
       <r>    -0.6437   268.2713   645.6949 </r>
       <r>    -0.5582   125.8658   657.5404 </r>
       <r>    -0.4728   204.4404   676.4950 </r>
       <r>    -0.3874   356.3678   709.4609 </r>
       <r>    -0.3019   177.3257   726.7482 </r>
       <r>    -0.2165   238.0467   748.6944 </r>
       <r>    -0.1310   242.1141   773.0723 </r>
       <r>    -0.0456   107.7061   782.7275 </r>
       <r>     0.0398   240.2327   804.1751 </r>
       <r>     0.1253   210.4909   824.2753 </r>
       <r>     0.2107    55.2209   831.9026 </r>
       <r>     0.2962     0.0000   832.0000 </r>
       <r>     0.3816     0.0000   832.0000 </r>
       <r>     0.4670     0.0000   832.0000 </r>
       <r>     0.5525     0.0000   832.0000 </r>
       <r>     0.6379     0.0114   832.0010 </r>
       <r>     0.7234    23.6666   834.0230 </r>
       <r>     0.8088   396.5455   868.1376 </r>
       <r>     0.8942   330.2326   899.7528 </r>
       <r>     0.9797   248.8578   922.4300 </r>
       <r>     1.0651   222.8858   943.3686 </r>
       <r>     1.1505   179.4833   958.7564 </r>
       <r>     1.2360    93.3322   966.9939 </r>
       <r>     1.3214   177.0918   982.7464 </r>
       <r>     1.4069    75.6739   989.2155 </r>
       <r>     1.4923   163.2589  1003.1988 </r>
       <r>     1.5777   119.4333  1014.6462 </r>
       <r>     1.6632   221.3042  1034.3234 </r>
       <r>     1.7486    83.4201  1042.8982 </r>
       <r>     1.8341   104.1066  1051.8051 </r>
       <r>     1.9195   130.0372  1063.8728 </r>
       <r>     2.0049    70.8722  1070.8558 </r>
       <r>     2.0904   130.3475  1082.8880 </r>
       <r>     2.1758    62.0417  1088.1888 </r>
       <r>     2.2613    97.7496  1096.6052 </r>
       <r>     2.3467    82.9640  1103.8384 </r>
       <r>     2.4321    59.7437  1111.9071 </r>
       <r>     2.5176   148.4308  1124.5908 </r>
       <r>     2.6030    73.9854  1132.1168 </r>
       <r>     2.6885    45.2964  1135.9879 </r>
       <r>     2.7739    74.2504  1142.4010 </r>
       <r>     2.8593    10.3428  1143.2912 </r>
       <r>     2.9448    77.6636  1149.9267 </r>
       <r>     3.0302    11.7042  1151.2500 </r>
       <r>     3.1157     5.7025  1151.7372 </r>
       <r>     3.2011     2.9260  1152.0000 </r>
       <r>     3.2865     0.0000  1152.0000 </r>
       <r>     3.3720     0.0000  1152.0000 </r>
       <r>     3.4574     0.0000  1152.0000 </r>
       <r>     3.5429     0.0000  1152.0000 </r>
       <r>     3.6283     0.0000  1152.0000 </r>
       <r>     3.7137     0.0000  1152.0000 </r>
       <r>     3.7992     0.0000  1152.0000 </r>
       <r>     3.8846     0.0000  1152.0000 </r>
       <r>     3.9701     0.0000  1152.0000 </r>
       <r>     4.0555     0.0000  1152.0000 </r>
       <r>     4.1409     0.0000  1152.0000 </r>
       <r>     4.2264     2.9254  1152.2499 </r>
       <r>     4.3118     0.0000  1152.2500 </r>
       <r>     4.3973     0.0000  1152.2500 </r>
       <r>     4.4827     0.0000  1152.2500 </r>
       <r>     4.5681     0.0000  1152.2500 </r>
       <r>     4.6536     0.0000  1152.2500 </r>
       <r>     4.7390     5.8521  1152.7500 </r>
       <r>     4.8244     0.0000  1152.7500 </r>
       <r>     4.9099     0.0000  1152.7500 </r>
       <r>     4.9953     0.0000  1152.7500 </r>
       <r>     5.0808     0.0000  1152.7500 </r>
       <r>     5.1662     0.0000  1152.7500 </r>
       <r>     5.2516     0.0000  1152.7500 </r>
       <r>     5.3371     0.0000  1152.7500 </r>
       <r>     5.4225     0.0000  1152.7500 </r>
       <r>     5.5080    25.8701  1154.9603 </r>
       <r>     5.5934    46.8149  1159.2498 </r>
       <r>     5.6788    46.7881  1163.2476 </r>
       <r>     5.7643     6.5324  1163.8081 </r>
       <r>     5.8497    56.9223  1169.2499 </r>
       <r>     5.9352     0.0748  1169.2564 </r>
       <r>     6.0206    75.4263  1175.7008 </r>
       <r>     6.1060    30.8732  1178.3888 </r>
       <r>     6.1915    54.1665  1183.1338 </r>
       <r>     6.2769    42.9876  1186.8395 </r>
       <r>     6.3624    53.6980  1192.0879 </r>
       <r>     6.4478   111.8767  1201.6526 </r>
       <r>     6.5332    61.3015  1207.7387 </r>
       <r>     6.6187    62.6892  1213.8562 </r>
       <r>     6.7041    14.6254  1215.2500 </r>
       <r>     6.7896     0.0000  1215.2500 </r>
       <r>     6.8750    21.5800  1217.0938 </r>
       <r>     6.9604    79.8587  1224.2169 </r>
       <r>     7.0459    84.0707  1231.6147 </r>
       <r>     7.1313    47.1891  1236.8212 </r>
       <r>     7.2168    43.9323  1240.7657 </r>
       <r>     7.3022    97.4916  1249.0953 </r>
       <r>     7.3876    39.5142  1253.8469 </r>
       <r>     7.4731    59.1248  1260.3178 </r>
       <r>     7.5585    48.2959  1266.3764 </r>
       <r>     7.6440    36.6197  1269.5126 </r>
       <r>     7.7294    23.4045  1272.2497 </r>
       <r>     7.8148    52.1377  1276.7046 </r>
       <r>     7.9003    23.4066  1278.7499 </r>
       <r>     7.9857     0.0003  1278.7500 </r>
       <r>     8.0711   101.9035  1287.4566 </r>
       <r>     8.1566    89.4107  1295.7503 </r>
       <r>     8.2420    98.6328  1304.1776 </r>
       <r>     8.3275     0.0496  1304.2542 </r>
       <r>     8.4129    50.4773  1308.5670 </r>
       <r>     8.4983   115.9290  1319.6811 </r>
       <r>     8.5838    57.3055  1324.6462 </r>
       <r>     8.6692    33.8225  1327.6398 </r>
       <r>     8.7547    86.8682  1335.1720 </r>
       <r>     8.8401    59.0184  1341.2925 </r>
       <r>     8.9255   129.0616  1352.3399 </r>
       <r>     9.0110    48.2398  1358.3716 </r>
       <r>     9.0964    85.6856  1367.3261 </r>
       <r>     9.1819    30.0105  1370.0666 </r>
       <r>     9.2673    64.8065  1375.6833 </r>
       <r>     9.3527    43.4346  1381.0184 </r>
       <r>     9.4382    20.0924  1382.9999 </r>
       <r>     9.5236     0.0000  1383.0000 </r>
       <r>     9.6091     6.7423  1383.5761 </r>
       <r>     9.6945     2.9260  1384.0000 </r>
       <r>     9.7799     0.0000  1384.0000 </r>
       <r>     9.8654     0.0000  1384.0000 </r>
       <r>     9.9508     0.0000  1384.0000 </r>
       <r>    10.0363     0.0000  1384.0000 </r>
       <r>    10.1217     0.0000  1384.0000 </r>
       <r>    10.2071     0.0000  1384.0000 </r>
       <r>    10.2926     0.0000  1384.0000 </r>
       <r>    10.3780     0.0000  1384.0000 </r>
       <r>    10.4635     0.0000  1384.0000 </r>
       <r>    10.5489     0.0000  1384.0000 </r>
       <r>    10.6343     0.0000  1384.0000 </r>
       <r>    10.7198     0.0000  1384.0000 </r>
       <r>    10.8052     0.0000  1384.0000 </r>
      </set>
     </set>
    </array>
   </total>
  </dos>
 </calculation>
 <structure name="finalpos" >
  <crystal>
   <varray name="basis" >
    <v>      11.56480026       0.00000000       0.00000000 </v>
    <v>       0.00000000      11.56480026       0.00000000 </v>
    <v>       0.00000000       0.00000000      23.23839951 </v>
   </varray>
   <i name="volume">   3108.01056530 </i>
   <varray name="rec_basis" >
    <v>       0.08646928       0.00000000       0.00000000 </v>
    <v>       0.00000000       0.08646928       0.00000000 </v>
    <v>       0.00000000       0.00000000       0.04303222 </v>
   </varray>
  </crystal>
  <varray name="positions" >
   <v>       0.00000000       0.25000000       0.12500000 </v>
   <v>       0.00000000       0.25000000       0.62500000 </v>
   <v>       0.00000000       0.75000000       0.12500000 </v>
   <v>       0.00000000       0.75000000       0.62500000 </v>
   <v>       0.50000000       0.25000000       0.12500000 </v>
   <v>       0.50000000       0.25000000       0.62500000 </v>
   <v>       0.50000000       0.75000000       0.12500000 </v>
   <v>       0.50000000       0.75000000       0.62500000 </v>
   <v>       0.00000000       0.00000000       0.00000000 </v>
   <v>       0.00000000       0.00000000       0.50000000 </v>
   <v>       0.00000000       0.50000000       0.00000000 </v>
   <v>       0.00000000       0.50000000       0.50000000 </v>
   <v>       0.50000000       0.00000000       0.00000000 </v>
   <v>       0.50000000       0.00000000       0.50000000 </v>
   <v>       0.50000000       0.50000000       0.00000000 </v>
   <v>       0.50000000       0.50000000       0.50000000 </v>
   <v>       0.25000000       0.00000000       0.37500000 </v>
   <v>       0.25000000       0.00000000       0.87500000 </v>
   <v>       0.25000000       0.50000000       0.37500000 </v>
   <v>       0.25000000       0.50000000       0.87500000 </v>
   <v>       0.75000000       0.00000000       0.37500000 </v>
   <v>       0.75000000       0.00000000       0.87500000 </v>
   <v>       0.75000000       0.50000000       0.37500000 </v>
   <v>       0.75000000       0.50000000       0.87500000 </v>
   <v>       0.25000000       0.25000000       0.25000000 </v>
   <v>       0.25000000       0.25000000       0.75000000 </v>
   <v>       0.25000000       0.75000000       0.25000000 </v>
   <v>       0.25000000       0.75000000       0.75000000 </v>
   <v>       0.75000000       0.25000000       0.25000000 </v>
   <v>       0.75000000       0.25000000       0.75000000 </v>
   <v>       0.75000000       0.75000000       0.25000000 </v>
   <v>       0.75000000       0.75000000       0.75000000 </v>
   <v>       0.00000000       0.25000000       0.37500000 </v>
   <v>       0.00000000       0.25000000       0.87500000 </v>
   <v>       0.00000000       0.75000000       0.37500000 </v>
   <v>       0.00000000       0.75000000       0.87500000 </v>
   <v>       0.50000000       0.25000000       0.37500000 </v>
   <v>       0.50000000       0.25000000       0.87500000 </v>
   <v>       0.50000000       0.75000000       0.37500000 </v>
   <v>       0.50000000       0.75000000       0.87500000 </v>
   <v>       0.00000000       0.00000000       0.25000000 </v>
   <v>       0.00000000       0.00000000       0.75000000 </v>
   <v>       0.00000000       0.50000000       0.25000000 </v>
   <v>       0.00000000       0.50000000       0.75000000 </v>
   <v>       0.50000000       0.00000000       0.25000000 </v>
   <v>       0.50000000       0.00000000       0.75000000 </v>
   <v>       0.50000000       0.50000000       0.25000000 </v>
   <v>       0.50000000       0.50000000       0.75000000 </v>
   <v>       0.25000000       0.00000000       0.12500000 </v>
   <v>       0.25000000       0.00000000       0.62500000 </v>
   <v>       0.25000000       0.50000000       0.12500000 </v>
   <v>       0.25000000       0.50000000       0.62500000 </v>
   <v>       0.75000000       0.00000000       0.12500000 </v>
   <v>       0.75000000       0.00000000       0.62500000 </v>
   <v>       0.75000000       0.50000000       0.12500000 </v>
   <v>       0.75000000       0.50000000       0.62500000 </v>
   <v>       0.25000000       0.25000000       0.00000000 </v>
   <v>       0.25000000       0.25000000       0.50000000 </v>
   <v>       0.25000000       0.75000000       0.00000000 </v>
   <v>       0.25000000       0.75000000       0.50000000 </v>
   <v>       0.75000000       0.25000000       0.00000000 </v>
   <v>       0.75000000       0.25000000       0.50000000 </v>
   <v>       0.75000000       0.75000000       0.00000000 </v>
   <v>       0.75000000       0.75000000       0.50000000 </v>
   <v>       0.37500000       0.13249999       0.18750000 </v>
   <v>       0.37500000       0.13249999       0.68750000 </v>
   <v>       0.37500000       0.63249999       0.18750000 </v>
   <v>       0.37500000       0.63249999       0.68750000 </v>
   <v>       0.87500000       0.13249999       0.18750000 </v>
   <v>       0.87500000       0.13249999       0.68750000 </v>
   <v>       0.87500000       0.63249999       0.18750000 </v>
   <v>       0.87500000       0.63249999       0.68750000 </v>
   <v>       0.12500000       0.38249999       0.43750000 </v>
   <v>       0.12500000       0.38249999       0.93750000 </v>
   <v>       0.12500000       0.88249999       0.43750000 </v>
   <v>       0.12500000       0.88249999       0.93750000 </v>
   <v>       0.62500000       0.38249999       0.43750000 </v>
   <v>       0.62500000       0.38249999       0.93750000 </v>
   <v>       0.62500000       0.88249999       0.43750000 </v>
   <v>       0.62500000       0.88249999       0.93750000 </v>
   <v>       0.12500000       0.36750001       0.18750000 </v>
   <v>       0.12500000       0.36750001       0.68750000 </v>
   <v>       0.12500000       0.86750001       0.18750000 </v>
   <v>       0.12500000       0.86750001       0.68750000 </v>
   <v>       0.62500000       0.36750001       0.18750000 </v>
   <v>       0.62500000       0.36750001       0.68750000 </v>
   <v>       0.62500000       0.86750001       0.18750000 </v>
   <v>       0.62500000       0.86750001       0.68750000 </v>
   <v>       0.37500000       0.11750000       0.43750000 </v>
   <v>       0.37500000       0.11750000       0.93750000 </v>
   <v>       0.37500000       0.61750001       0.43750000 </v>
   <v>       0.37500000       0.61750001       0.93750000 </v>
   <v>       0.87500000       0.11750000       0.43750000 </v>
   <v>       0.87500000       0.11750000       0.93750000 </v>
   <v>       0.87500000       0.61750001       0.43750000 </v>
   <v>       0.87500000       0.61750001       0.93750000 </v>
   <v>       0.11750000       0.12500000       0.06250000 </v>
   <v>       0.11750000       0.12500000       0.56250000 </v>
   <v>       0.11750000       0.62500000       0.06250000 </v>
   <v>       0.11750000       0.62500000       0.56250000 </v>
   <v>       0.61750001       0.12500000       0.06250000 </v>
   <v>       0.61750001       0.12500000       0.56250000 </v>
   <v>       0.61750001       0.62500000       0.06250000 </v>
   <v>       0.61750001       0.62500000       0.56250000 </v>
   <v>       0.38249999       0.37500000       0.06250000 </v>
   <v>       0.38249999       0.37500000       0.56250000 </v>
   <v>       0.38249999       0.87500000       0.06250000 </v>
   <v>       0.38249999       0.87500000       0.56250000 </v>
   <v>       0.88249999       0.37500000       0.06250000 </v>
   <v>       0.88249999       0.37500000       0.56250000 </v>
   <v>       0.88249999       0.87500000       0.06250000 </v>
   <v>       0.88249999       0.87500000       0.56250000 </v>
   <v>       0.36750001       0.37500000       0.31250000 </v>
   <v>       0.36750001       0.37500000       0.81250000 </v>
   <v>       0.36750001       0.87500000       0.31250000 </v>
   <v>       0.36750001       0.87500000       0.81250000 </v>
   <v>       0.86750001       0.37500000       0.31250000 </v>
   <v>       0.86750001       0.37500000       0.81250000 </v>
   <v>       0.86750001       0.87500000       0.31250000 </v>
   <v>       0.86750001       0.87500000       0.81250000 </v>
   <v>       0.13249999       0.12500000       0.31250000 </v>
   <v>       0.13249999       0.12500000       0.81250000 </v>
   <v>       0.13249999       0.62500000       0.31250000 </v>
   <v>       0.13249999       0.62500000       0.81250000 </v>
   <v>       0.63249999       0.12500000       0.31250000 </v>
   <v>       0.63249999       0.12500000       0.81250000 </v>
   <v>       0.63249999       0.62500000       0.31250000 </v>
   <v>       0.63249999       0.62500000       0.81250000 </v>
  </varray>
 </structure>
</modeling>
