<?xml version="1.0" encoding="ISO-8859-1"?>
<modeling>
 <generator>
  <i name="program" type="string">vasp </i>
  <i name="version" type="string">6.5.1  </i>
  <i name="subversion" type="string">10Mar25 (build Sep 17 2025 13:25:28) gamma-only                       parallel </i>
  <i name="platform" type="string">LinuxNV </i>
  <i name="date" type="string">2025 09 22 </i>
  <i name="time" type="string">17:04:08 </i>
 </generator>
 <incar>
  <i type="string" name="SYSTEM">Butanethiol on Ag 100 surface, 3-layer slab</i>
  <i type="int" name="ISTART">     0</i>
  <i type="string" name="PREC">MEDIUM</i>
  <i type="string" name="ALGO">Fast</i>
  <i type="int" name="ICHARG">     2</i>
  <i type="int" name="NELMIN">     4</i>
  <i name="EDIFF">      0.00000100</i>
  <i type="int" name="NBLOCK">     1</i>
  <i type="int" name="KBLOCK">     1</i>
  <i name="ENCUT">    400.00000000</i>
  <i name="POTIM">      0.40000000</i>
  <i type="string" name="LREAL">A</i>
  <i type="logical" name="LPLANE"> T  </i>
  <i type="int" name="ISMEAR">     1</i>
  <i name="SIGMA">      0.10000000</i>
  <i type="int" name="NWRITE">     3</i>
  <i type="int" name="LMAXPAW">     1</i>
  <i type="logical" name="LWAVE"> T  </i>
  <i type="logical" name="LCHARG"> T  </i>
  <i type="string" name="GGA">PE</i>
 </incar>
 <primitive_cell>
  <structure name="primitive_cell" >
   <crystal>
    <varray name="basis" >
     <v>      33.93000000       0.00000000       0.00000000 </v>
     <v>       0.00000000      33.93000000       0.00000000 </v>
     <v>       0.00000000       0.00000000      50.00000000 </v>
    </varray>
    <i name="volume">  57562.24500000 </i>
    <varray name="rec_basis" >
     <v>       0.02947244       0.00000000       0.00000000 </v>
     <v>       0.00000000       0.02947244       0.00000000 </v>
     <v>       0.00000000       0.00000000       0.02000000 </v>
    </varray>
   </crystal>
   <varray name="positions" >
    <v>       0.02777778       0.02777778       0.36805000 </v>
    <v>       0.08333333       0.08333333       0.36805000 </v>
    <v>       0.02777778       0.08333333       0.40575000 </v>
    <v>       0.08333333       0.02777778       0.40575000 </v>
    <v>       0.02777778       0.02777778       0.44345000 </v>
    <v>       0.08333333       0.08333333       0.44345000 </v>
    <v>       0.02777778       0.08333333       0.48115000 </v>
    <v>       0.08333333       0.02777778       0.48115000 </v>
    <v>       0.02777778       0.02777778       0.51885000 </v>
    <v>       0.08333333       0.08333333       0.51885000 </v>
    <v>       0.02777778       0.08333333       0.55655000 </v>
    <v>       0.08333333       0.02777778       0.55655000 </v>
    <v>       0.02777778       0.02777778       0.59425000 </v>
    <v>       0.08333333       0.08333333       0.59425000 </v>
    <v>       0.02777778       0.13888889       0.36805000 </v>
    <v>       0.08333333       0.19444444       0.36805000 </v>
    <v>       0.02777778       0.19444444       0.40575000 </v>
    <v>       0.08333333       0.13888889       0.40575000 </v>
    <v>       0.02777778       0.13888889       0.44345000 </v>
    <v>       0.08333333       0.19444444       0.44345000 </v>
    <v>       0.02777778       0.19444444       0.48115000 </v>
    <v>       0.08333333       0.13888889       0.48115000 </v>
    <v>       0.02777778       0.13888889       0.51885000 </v>
    <v>       0.08333333       0.19444444       0.51885000 </v>
    <v>       0.02777778       0.19444444       0.55655000 </v>
    <v>       0.08333333       0.13888889       0.55655000 </v>
    <v>       0.02777778       0.13888889       0.59425000 </v>
    <v>       0.08333333       0.19444444       0.59425000 </v>
    <v>       0.02777778       0.25000000       0.36805000 </v>
    <v>       0.08333333       0.30555556       0.36805000 </v>
    <v>       0.02777778       0.30555556       0.40575000 </v>
    <v>       0.08333333       0.25000000       0.40575000 </v>
    <v>       0.02777778       0.25000000       0.44345000 </v>
    <v>       0.08333333       0.30555556       0.44345000 </v>
    <v>       0.02777778       0.30555556       0.48115000 </v>
    <v>       0.08333333       0.25000000       0.48115000 </v>
    <v>       0.02777778       0.25000000       0.51885000 </v>
    <v>       0.08333333       0.30555556       0.51885000 </v>
    <v>       0.02777778       0.30555556       0.55655000 </v>
    <v>       0.08333333       0.25000000       0.55655000 </v>
    <v>       0.02777778       0.25000000       0.59425000 </v>
    <v>       0.08333333       0.30555556       0.59425000 </v>
    <v>       0.02777778       0.36111111       0.36805000 </v>
    <v>       0.08333333       0.41666667       0.36805000 </v>
    <v>       0.02777778       0.41666667       0.40575000 </v>
    <v>       0.08333333       0.36111111       0.40575000 </v>
    <v>       0.02777778       0.36111111       0.44345000 </v>
    <v>       0.08333333       0.41666667       0.44345000 </v>
    <v>       0.02777778       0.41666667       0.48115000 </v>
    <v>       0.08333333       0.36111111       0.48115000 </v>
    <v>       0.02777778       0.36111111       0.51885000 </v>
    <v>       0.08333333       0.41666667       0.51885000 </v>
    <v>       0.02777778       0.41666667       0.55655000 </v>
    <v>       0.08333333       0.36111111       0.55655000 </v>
    <v>       0.02777778       0.36111111       0.59425000 </v>
    <v>       0.08333333       0.41666667       0.59425000 </v>
    <v>       0.02777778       0.47222222       0.36805000 </v>
    <v>       0.08333333       0.52777778       0.36805000 </v>
    <v>       0.02777778       0.52777778       0.40575000 </v>
    <v>       0.08333333       0.47222222       0.40575000 </v>
    <v>       0.02777778       0.47222222       0.44345000 </v>
    <v>       0.08333333       0.52777778       0.44345000 </v>
    <v>       0.02777778       0.52777778       0.48115000 </v>
    <v>       0.08333333       0.47222222       0.48115000 </v>
    <v>       0.02777778       0.47222222       0.51885000 </v>
    <v>       0.08333333       0.52777778       0.51885000 </v>
    <v>       0.02777778       0.52777778       0.55655000 </v>
    <v>       0.08333333       0.47222222       0.55655000 </v>
    <v>       0.02777778       0.47222222       0.59425000 </v>
    <v>       0.08333333       0.52777778       0.59425000 </v>
    <v>       0.02777778       0.58333333       0.36805000 </v>
    <v>       0.08333333       0.63888889       0.36805000 </v>
    <v>       0.02777778       0.63888889       0.40575000 </v>
    <v>       0.08333333       0.58333333       0.40575000 </v>
    <v>       0.02777778       0.58333333       0.44345000 </v>
    <v>       0.08333333       0.63888889       0.44345000 </v>
    <v>       0.02777778       0.63888889       0.48115000 </v>
    <v>       0.08333333       0.58333333       0.48115000 </v>
    <v>       0.02777778       0.58333333       0.51885000 </v>
    <v>       0.08333333       0.63888889       0.51885000 </v>
    <v>       0.02777778       0.63888889       0.55655000 </v>
    <v>       0.08333333       0.58333333       0.55655000 </v>
    <v>       0.02777778       0.58333333       0.59425000 </v>
    <v>       0.08333333       0.63888889       0.59425000 </v>
    <v>       0.02777778       0.69444444       0.36805000 </v>
    <v>       0.08333333       0.75000000       0.36805000 </v>
    <v>       0.02777778       0.75000000       0.40575000 </v>
    <v>       0.08333333       0.69444444       0.40575000 </v>
    <v>       0.02777778       0.69444444       0.44345000 </v>
    <v>       0.08333333       0.75000000       0.44345000 </v>
    <v>       0.02777778       0.75000000       0.48115000 </v>
    <v>       0.08333333       0.69444444       0.48115000 </v>
    <v>       0.02777778       0.69444444       0.51885000 </v>
    <v>       0.08333333       0.75000000       0.51885000 </v>
    <v>       0.02777778       0.75000000       0.55655000 </v>
    <v>       0.08333333       0.69444444       0.55655000 </v>
    <v>       0.02777778       0.69444444       0.59425000 </v>
    <v>       0.08333333       0.75000000       0.59425000 </v>
    <v>       0.02777778       0.80555556       0.36805000 </v>
    <v>       0.08333333       0.86111111       0.36805000 </v>
    <v>       0.02777778       0.86111111       0.40575000 </v>
    <v>       0.08333333       0.80555556       0.40575000 </v>
    <v>       0.02777778       0.80555556       0.44345000 </v>
    <v>       0.08333333       0.86111111       0.44345000 </v>
    <v>       0.02777778       0.86111111       0.48115000 </v>
    <v>       0.08333333       0.80555556       0.48115000 </v>
    <v>       0.02777778       0.80555556       0.51885000 </v>
    <v>       0.08333333       0.86111111       0.51885000 </v>
    <v>       0.02777778       0.86111111       0.55655000 </v>
    <v>       0.08333333       0.80555556       0.55655000 </v>
    <v>       0.02777778       0.80555556       0.59425000 </v>
    <v>       0.08333333       0.86111111       0.59425000 </v>
    <v>       0.02777778       0.91666667       0.36805000 </v>
    <v>       0.08333333       0.97222222       0.36805000 </v>
    <v>       0.02777778       0.97222222       0.40575000 </v>
    <v>       0.08333333       0.91666667       0.40575000 </v>
    <v>       0.02777778       0.91666667       0.44345000 </v>
    <v>       0.08333333       0.97222222       0.44345000 </v>
    <v>       0.02777778       0.97222222       0.48115000 </v>
    <v>       0.08333333       0.91666667       0.48115000 </v>
    <v>       0.02777778       0.91666667       0.51885000 </v>
    <v>       0.08333333       0.97222222       0.51885000 </v>
    <v>       0.02777778       0.97222222       0.55655000 </v>
    <v>       0.08333333       0.91666667       0.55655000 </v>
    <v>       0.02777778       0.91666667       0.59425000 </v>
    <v>       0.08333333       0.97222222       0.59425000 </v>
    <v>       0.13888889       0.02777778       0.36805000 </v>
    <v>       0.19444444       0.08333333       0.36805000 </v>
    <v>       0.13888889       0.08333333       0.40575000 </v>
    <v>       0.19444444       0.02777778       0.40575000 </v>
    <v>       0.13888889       0.02777778       0.44345000 </v>
    <v>       0.19444444       0.08333333       0.44345000 </v>
    <v>       0.13888889       0.08333333       0.48115000 </v>
    <v>       0.19444444       0.02777778       0.48115000 </v>
    <v>       0.13888889       0.02777778       0.51885000 </v>
    <v>       0.19444444       0.08333333       0.51885000 </v>
    <v>       0.13888889       0.08333333       0.55655000 </v>
    <v>       0.19444444       0.02777778       0.55655000 </v>
    <v>       0.13888889       0.02777778       0.59425000 </v>
    <v>       0.19444444       0.08333333       0.59425000 </v>
    <v>       0.13888889       0.13888889       0.36805000 </v>
    <v>       0.19444444       0.19444444       0.36805000 </v>
    <v>       0.13888889       0.19444444       0.40575000 </v>
    <v>       0.19444444       0.13888889       0.40575000 </v>
    <v>       0.13888889       0.13888889       0.44345000 </v>
    <v>       0.19444444       0.19444444       0.44345000 </v>
    <v>       0.13888889       0.19444444       0.48115000 </v>
    <v>       0.19444444       0.13888889       0.48115000 </v>
    <v>       0.13888889       0.13888889       0.51885000 </v>
    <v>       0.19444444       0.19444444       0.51885000 </v>
    <v>       0.13888889       0.19444444       0.55655000 </v>
    <v>       0.19444444       0.13888889       0.55655000 </v>
    <v>       0.13888889       0.13888889       0.59425000 </v>
    <v>       0.19444444       0.19444444       0.59425000 </v>
    <v>       0.13888889       0.25000000       0.36805000 </v>
    <v>       0.19444444       0.30555556       0.36805000 </v>
    <v>       0.13888889       0.30555556       0.40575000 </v>
    <v>       0.19444444       0.25000000       0.40575000 </v>
    <v>       0.13888889       0.25000000       0.44345000 </v>
    <v>       0.19444444       0.30555556       0.44345000 </v>
    <v>       0.13888889       0.30555556       0.48115000 </v>
    <v>       0.19444444       0.25000000       0.48115000 </v>
    <v>       0.13888889       0.25000000       0.51885000 </v>
    <v>       0.19444444       0.30555556       0.51885000 </v>
    <v>       0.13888889       0.30555556       0.55655000 </v>
    <v>       0.19444444       0.25000000       0.55655000 </v>
    <v>       0.13888889       0.25000000       0.59425000 </v>
    <v>       0.19444444       0.30555556       0.59425000 </v>
    <v>       0.13888889       0.36111111       0.36805000 </v>
    <v>       0.19444444       0.41666667       0.36805000 </v>
    <v>       0.13888889       0.41666667       0.40575000 </v>
    <v>       0.19444444       0.36111111       0.40575000 </v>
    <v>       0.13888889       0.36111111       0.44345000 </v>
    <v>       0.19444444       0.41666667       0.44345000 </v>
    <v>       0.13888889       0.41666667       0.48115000 </v>
    <v>       0.19444444       0.36111111       0.48115000 </v>
    <v>       0.13888889       0.36111111       0.51885000 </v>
    <v>       0.19444444       0.41666667       0.51885000 </v>
    <v>       0.13888889       0.41666667       0.55655000 </v>
    <v>       0.19444444       0.36111111       0.55655000 </v>
    <v>       0.13888889       0.36111111       0.59425000 </v>
    <v>       0.19444444       0.41666667       0.59425000 </v>
    <v>       0.13888889       0.47222222       0.36805000 </v>
    <v>       0.19444444       0.52777778       0.36805000 </v>
    <v>       0.13888889       0.52777778       0.40575000 </v>
    <v>       0.19444444       0.47222222       0.40575000 </v>
    <v>       0.13888889       0.47222222       0.44345000 </v>
    <v>       0.19444444       0.52777778       0.44345000 </v>
    <v>       0.13888889       0.52777778       0.48115000 </v>
    <v>       0.19444444       0.47222222       0.48115000 </v>
    <v>       0.13888889       0.47222222       0.51885000 </v>
    <v>       0.19444444       0.52777778       0.51885000 </v>
    <v>       0.13888889       0.52777778       0.55655000 </v>
    <v>       0.19444444       0.47222222       0.55655000 </v>
    <v>       0.13888889       0.47222222       0.59425000 </v>
    <v>       0.19444444       0.52777778       0.59425000 </v>
    <v>       0.13888889       0.58333333       0.36805000 </v>
    <v>       0.19444444       0.63888889       0.36805000 </v>
    <v>       0.13888889       0.63888889       0.40575000 </v>
    <v>       0.19444444       0.58333333       0.40575000 </v>
    <v>       0.13888889       0.58333333       0.44345000 </v>
    <v>       0.19444444       0.63888889       0.44345000 </v>
    <v>       0.13888889       0.63888889       0.48115000 </v>
    <v>       0.19444444       0.58333333       0.48115000 </v>
    <v>       0.13888889       0.58333333       0.51885000 </v>
    <v>       0.19444444       0.63888889       0.51885000 </v>
    <v>       0.13888889       0.63888889       0.55655000 </v>
    <v>       0.19444444       0.58333333       0.55655000 </v>
    <v>       0.13888889       0.58333333       0.59425000 </v>
    <v>       0.19444444       0.63888889       0.59425000 </v>
    <v>       0.13888889       0.69444444       0.36805000 </v>
    <v>       0.19444444       0.75000000       0.36805000 </v>
    <v>       0.13888889       0.75000000       0.40575000 </v>
    <v>       0.19444444       0.69444444       0.40575000 </v>
    <v>       0.13888889       0.69444444       0.44345000 </v>
    <v>       0.19444444       0.75000000       0.44345000 </v>
    <v>       0.13888889       0.75000000       0.48115000 </v>
    <v>       0.19444444       0.69444444       0.48115000 </v>
    <v>       0.13888889       0.69444444       0.51885000 </v>
    <v>       0.19444444       0.75000000       0.51885000 </v>
    <v>       0.13888889       0.75000000       0.55655000 </v>
    <v>       0.19444444       0.69444444       0.55655000 </v>
    <v>       0.13888889       0.69444444       0.59425000 </v>
    <v>       0.19444444       0.75000000       0.59425000 </v>
    <v>       0.13888889       0.80555556       0.36805000 </v>
    <v>       0.19444444       0.86111111       0.36805000 </v>
    <v>       0.13888889       0.86111111       0.40575000 </v>
    <v>       0.19444444       0.80555556       0.40575000 </v>
    <v>       0.13888889       0.80555556       0.44345000 </v>
    <v>       0.19444444       0.86111111       0.44345000 </v>
    <v>       0.13888889       0.86111111       0.48115000 </v>
    <v>       0.19444444       0.80555556       0.48115000 </v>
    <v>       0.13888889       0.80555556       0.51885000 </v>
    <v>       0.19444444       0.86111111       0.51885000 </v>
    <v>       0.13888889       0.86111111       0.55655000 </v>
    <v>       0.19444444       0.80555556       0.55655000 </v>
    <v>       0.13888889       0.80555556       0.59425000 </v>
    <v>       0.19444444       0.86111111       0.59425000 </v>
    <v>       0.13888889       0.91666667       0.36805000 </v>
    <v>       0.19444444       0.97222222       0.36805000 </v>
    <v>       0.13888889       0.97222222       0.40575000 </v>
    <v>       0.19444444       0.91666667       0.40575000 </v>
    <v>       0.13888889       0.91666667       0.44345000 </v>
    <v>       0.19444444       0.97222222       0.44345000 </v>
    <v>       0.13888889       0.97222222       0.48115000 </v>
    <v>       0.19444444       0.91666667       0.48115000 </v>
    <v>       0.13888889       0.91666667       0.51885000 </v>
    <v>       0.19444444       0.97222222       0.51885000 </v>
    <v>       0.13888889       0.97222222       0.55655000 </v>
    <v>       0.19444444       0.91666667       0.55655000 </v>
    <v>       0.13888889       0.91666667       0.59425000 </v>
    <v>       0.19444444       0.97222222       0.59425000 </v>
    <v>       0.25000000       0.02777778       0.36805000 </v>
    <v>       0.30555556       0.08333333       0.36805000 </v>
    <v>       0.25000000       0.08333333       0.40575000 </v>
    <v>       0.30555556       0.02777778       0.40575000 </v>
    <v>       0.25000000       0.02777778       0.44345000 </v>
    <v>       0.30555556       0.08333333       0.44345000 </v>
    <v>       0.25000000       0.08333333       0.48115000 </v>
    <v>       0.30555556       0.02777778       0.48115000 </v>
    <v>       0.25000000       0.02777778       0.51885000 </v>
    <v>       0.30555556       0.08333333       0.51885000 </v>
    <v>       0.25000000       0.08333333       0.55655000 </v>
    <v>       0.30555556       0.02777778       0.55655000 </v>
    <v>       0.25000000       0.02777778       0.59425000 </v>
    <v>       0.30555556       0.08333333       0.59425000 </v>
    <v>       0.25000000       0.13888889       0.36805000 </v>
    <v>       0.30555556       0.19444444       0.36805000 </v>
    <v>       0.25000000       0.19444444       0.40575000 </v>
    <v>       0.30555556       0.13888889       0.40575000 </v>
    <v>       0.25000000       0.13888889       0.44345000 </v>
    <v>       0.30555556       0.19444444       0.44345000 </v>
    <v>       0.25000000       0.19444444       0.48115000 </v>
    <v>       0.30555556       0.13888889       0.48115000 </v>
    <v>       0.25000000       0.13888889       0.51885000 </v>
    <v>       0.30555556       0.19444444       0.51885000 </v>
    <v>       0.25000000       0.19444444       0.55655000 </v>
    <v>       0.30555556       0.13888889       0.55655000 </v>
    <v>       0.25000000       0.13888889       0.59425000 </v>
    <v>       0.30555556       0.19444444       0.59425000 </v>
    <v>       0.25000000       0.25000000       0.36805000 </v>
    <v>       0.30555556       0.30555556       0.36805000 </v>
    <v>       0.25000000       0.30555556       0.40575000 </v>
    <v>       0.30555556       0.25000000       0.40575000 </v>
    <v>       0.25000000       0.25000000       0.44345000 </v>
    <v>       0.30555556       0.30555556       0.44345000 </v>
    <v>       0.25000000       0.30555556       0.48115000 </v>
    <v>       0.30555556       0.25000000       0.48115000 </v>
    <v>       0.25000000       0.25000000       0.51885000 </v>
    <v>       0.30555556       0.30555556       0.51885000 </v>
    <v>       0.25000000       0.30555556       0.55655000 </v>
    <v>       0.30555556       0.25000000       0.55655000 </v>
    <v>       0.25000000       0.25000000       0.59425000 </v>
    <v>       0.30555556       0.30555556       0.59425000 </v>
    <v>       0.25000000       0.36111111       0.36805000 </v>
    <v>       0.30555556       0.41666667       0.36805000 </v>
    <v>       0.25000000       0.41666667       0.40575000 </v>
    <v>       0.30555556       0.36111111       0.40575000 </v>
    <v>       0.25000000       0.36111111       0.44345000 </v>
    <v>       0.30555556       0.41666667       0.44345000 </v>
    <v>       0.25000000       0.41666667       0.48115000 </v>
    <v>       0.30555556       0.36111111       0.48115000 </v>
    <v>       0.25000000       0.36111111       0.51885000 </v>
    <v>       0.30555556       0.41666667       0.51885000 </v>
    <v>       0.25000000       0.41666667       0.55655000 </v>
    <v>       0.30555556       0.36111111       0.55655000 </v>
    <v>       0.25000000       0.36111111       0.59425000 </v>
    <v>       0.30555556       0.41666667       0.59425000 </v>
    <v>       0.25000000       0.47222222       0.36805000 </v>
    <v>       0.30555556       0.52777778       0.36805000 </v>
    <v>       0.25000000       0.52777778       0.40575000 </v>
    <v>       0.30555556       0.47222222       0.40575000 </v>
    <v>       0.25000000       0.47222222       0.44345000 </v>
    <v>       0.30555556       0.52777778       0.44345000 </v>
    <v>       0.25000000       0.52777778       0.48115000 </v>
    <v>       0.30555556       0.47222222       0.48115000 </v>
    <v>       0.25000000       0.47222222       0.51885000 </v>
    <v>       0.30555556       0.52777778       0.51885000 </v>
    <v>       0.25000000       0.52777778       0.55655000 </v>
    <v>       0.30555556       0.47222222       0.55655000 </v>
    <v>       0.25000000       0.47222222       0.59425000 </v>
    <v>       0.30555556       0.52777778       0.59425000 </v>
    <v>       0.25000000       0.58333333       0.36805000 </v>
    <v>       0.30555556       0.63888889       0.36805000 </v>
    <v>       0.25000000       0.63888889       0.40575000 </v>
    <v>       0.30555556       0.58333333       0.40575000 </v>
    <v>       0.25000000       0.58333333       0.44345000 </v>
    <v>       0.30555556       0.63888889       0.44345000 </v>
    <v>       0.25000000       0.63888889       0.48115000 </v>
    <v>       0.30555556       0.58333333       0.48115000 </v>
    <v>       0.25000000       0.58333333       0.51885000 </v>
    <v>       0.30555556       0.63888889       0.51885000 </v>
    <v>       0.25000000       0.63888889       0.55655000 </v>
    <v>       0.30555556       0.58333333       0.55655000 </v>
    <v>       0.25000000       0.58333333       0.59425000 </v>
    <v>       0.30555556       0.63888889       0.59425000 </v>
    <v>       0.25000000       0.69444444       0.36805000 </v>
    <v>       0.30555556       0.75000000       0.36805000 </v>
    <v>       0.25000000       0.75000000       0.40575000 </v>
    <v>       0.30555556       0.69444444       0.40575000 </v>
    <v>       0.25000000       0.69444444       0.44345000 </v>
    <v>       0.30555556       0.75000000       0.44345000 </v>
    <v>       0.25000000       0.75000000       0.48115000 </v>
    <v>       0.30555556       0.69444444       0.48115000 </v>
    <v>       0.25000000       0.69444444       0.51885000 </v>
    <v>       0.30555556       0.75000000       0.51885000 </v>
    <v>       0.25000000       0.75000000       0.55655000 </v>
    <v>       0.30555556       0.69444444       0.55655000 </v>
    <v>       0.25000000       0.69444444       0.59425000 </v>
    <v>       0.30555556       0.75000000       0.59425000 </v>
    <v>       0.25000000       0.80555556       0.36805000 </v>
    <v>       0.30555556       0.86111111       0.36805000 </v>
    <v>       0.25000000       0.86111111       0.40575000 </v>
    <v>       0.30555556       0.80555556       0.40575000 </v>
    <v>       0.25000000       0.80555556       0.44345000 </v>
    <v>       0.30555556       0.86111111       0.44345000 </v>
    <v>       0.25000000       0.86111111       0.48115000 </v>
    <v>       0.30555556       0.80555556       0.48115000 </v>
    <v>       0.25000000       0.80555556       0.51885000 </v>
    <v>       0.30555556       0.86111111       0.51885000 </v>
    <v>       0.25000000       0.86111111       0.55655000 </v>
    <v>       0.30555556       0.80555556       0.55655000 </v>
    <v>       0.25000000       0.80555556       0.59425000 </v>
    <v>       0.30555556       0.86111111       0.59425000 </v>
    <v>       0.25000000       0.91666667       0.36805000 </v>
    <v>       0.30555556       0.97222222       0.36805000 </v>
    <v>       0.25000000       0.97222222       0.40575000 </v>
    <v>       0.30555556       0.91666667       0.40575000 </v>
    <v>       0.25000000       0.91666667       0.44345000 </v>
    <v>       0.30555556       0.97222222       0.44345000 </v>
    <v>       0.25000000       0.97222222       0.48115000 </v>
    <v>       0.30555556       0.91666667       0.48115000 </v>
    <v>       0.25000000       0.91666667       0.51885000 </v>
    <v>       0.30555556       0.97222222       0.51885000 </v>
    <v>       0.25000000       0.97222222       0.55655000 </v>
    <v>       0.30555556       0.91666667       0.55655000 </v>
    <v>       0.25000000       0.91666667       0.59425000 </v>
    <v>       0.30555556       0.97222222       0.59425000 </v>
    <v>       0.36111111       0.02777778       0.36805000 </v>
    <v>       0.41666667       0.08333333       0.36805000 </v>
    <v>       0.36111111       0.08333333       0.40575000 </v>
    <v>       0.41666667       0.02777778       0.40575000 </v>
    <v>       0.36111111       0.02777778       0.44345000 </v>
    <v>       0.41666667       0.08333333       0.44345000 </v>
    <v>       0.36111111       0.08333333       0.48115000 </v>
    <v>       0.41666667       0.02777778       0.48115000 </v>
    <v>       0.36111111       0.02777778       0.51885000 </v>
    <v>       0.41666667       0.08333333       0.51885000 </v>
    <v>       0.36111111       0.08333333       0.55655000 </v>
    <v>       0.41666667       0.02777778       0.55655000 </v>
    <v>       0.36111111       0.02777778       0.59425000 </v>
    <v>       0.41666667       0.08333333       0.59425000 </v>
    <v>       0.36111111       0.13888889       0.36805000 </v>
    <v>       0.41666667       0.19444444       0.36805000 </v>
    <v>       0.36111111       0.19444444       0.40575000 </v>
    <v>       0.41666667       0.13888889       0.40575000 </v>
    <v>       0.36111111       0.13888889       0.44345000 </v>
    <v>       0.41666667       0.19444444       0.44345000 </v>
    <v>       0.36111111       0.19444444       0.48115000 </v>
    <v>       0.41666667       0.13888889       0.48115000 </v>
    <v>       0.36111111       0.13888889       0.51885000 </v>
    <v>       0.41666667       0.19444444       0.51885000 </v>
    <v>       0.36111111       0.19444444       0.55655000 </v>
    <v>       0.41666667       0.13888889       0.55655000 </v>
    <v>       0.36111111       0.13888889       0.59425000 </v>
    <v>       0.41666667       0.19444444       0.59425000 </v>
    <v>       0.36111111       0.25000000       0.36805000 </v>
    <v>       0.41666667       0.30555556       0.36805000 </v>
    <v>       0.36111111       0.30555556       0.40575000 </v>
    <v>       0.41666667       0.25000000       0.40575000 </v>
    <v>       0.36111111       0.25000000       0.44345000 </v>
    <v>       0.41666667       0.30555556       0.44345000 </v>
    <v>       0.36111111       0.30555556       0.48115000 </v>
    <v>       0.41666667       0.25000000       0.48115000 </v>
    <v>       0.36111111       0.25000000       0.51885000 </v>
    <v>       0.41666667       0.30555556       0.51885000 </v>
    <v>       0.36111111       0.30555556       0.55655000 </v>
    <v>       0.41666667       0.25000000       0.55655000 </v>
    <v>       0.36111111       0.25000000       0.59425000 </v>
    <v>       0.41666667       0.30555556       0.59425000 </v>
    <v>       0.36111111       0.36111111       0.36805000 </v>
    <v>       0.41666667       0.41666667       0.36805000 </v>
    <v>       0.36111111       0.41666667       0.40575000 </v>
    <v>       0.41666667       0.36111111       0.40575000 </v>
    <v>       0.36111111       0.36111111       0.44345000 </v>
    <v>       0.41666667       0.41666667       0.44345000 </v>
    <v>       0.36111111       0.41666667       0.48115000 </v>
    <v>       0.41666667       0.36111111       0.48115000 </v>
    <v>       0.36111111       0.36111111       0.51885000 </v>
    <v>       0.41666667       0.41666667       0.51885000 </v>
    <v>       0.36111111       0.41666667       0.55655000 </v>
    <v>       0.41666667       0.36111111       0.55655000 </v>
    <v>       0.36111111       0.36111111       0.59425000 </v>
    <v>       0.41666667       0.41666667       0.59425000 </v>
    <v>       0.36111111       0.47222222       0.36805000 </v>
    <v>       0.41666667       0.52777778       0.36805000 </v>
    <v>       0.36111111       0.52777778       0.40575000 </v>
    <v>       0.41666667       0.47222222       0.40575000 </v>
    <v>       0.36111111       0.47222222       0.44345000 </v>
    <v>       0.41666667       0.52777778       0.44345000 </v>
    <v>       0.36111111       0.52777778       0.48115000 </v>
    <v>       0.41666667       0.47222222       0.48115000 </v>
    <v>       0.36111111       0.47222222       0.51885000 </v>
    <v>       0.41666667       0.52777778       0.51885000 </v>
    <v>       0.36111111       0.52777778       0.55655000 </v>
    <v>       0.41666667       0.47222222       0.55655000 </v>
    <v>       0.36111111       0.47222222       0.59425000 </v>
    <v>       0.41666667       0.52777778       0.59425000 </v>
    <v>       0.36111111       0.58333333       0.36805000 </v>
    <v>       0.41666667       0.63888889       0.36805000 </v>
    <v>       0.36111111       0.63888889       0.40575000 </v>
    <v>       0.41666667       0.58333333       0.40575000 </v>
    <v>       0.36111111       0.58333333       0.44345000 </v>
    <v>       0.41666667       0.63888889       0.44345000 </v>
    <v>       0.36111111       0.63888889       0.48115000 </v>
    <v>       0.41666667       0.58333333       0.48115000 </v>
    <v>       0.36111111       0.58333333       0.51885000 </v>
    <v>       0.41666667       0.63888889       0.51885000 </v>
    <v>       0.36111111       0.63888889       0.55655000 </v>
    <v>       0.41666667       0.58333333       0.55655000 </v>
    <v>       0.36111111       0.58333333       0.59425000 </v>
    <v>       0.41666667       0.63888889       0.59425000 </v>
    <v>       0.36111111       0.69444444       0.36805000 </v>
    <v>       0.41666667       0.75000000       0.36805000 </v>
    <v>       0.36111111       0.75000000       0.40575000 </v>
    <v>       0.41666667       0.69444444       0.40575000 </v>
    <v>       0.36111111       0.69444444       0.44345000 </v>
    <v>       0.41666667       0.75000000       0.44345000 </v>
    <v>       0.36111111       0.75000000       0.48115000 </v>
    <v>       0.41666667       0.69444444       0.48115000 </v>
    <v>       0.36111111       0.69444444       0.51885000 </v>
    <v>       0.41666667       0.75000000       0.51885000 </v>
    <v>       0.36111111       0.75000000       0.55655000 </v>
    <v>       0.41666667       0.69444444       0.55655000 </v>
    <v>       0.36111111       0.69444444       0.59425000 </v>
    <v>       0.41666667       0.75000000       0.59425000 </v>
    <v>       0.36111111       0.80555556       0.36805000 </v>
    <v>       0.41666667       0.86111111       0.36805000 </v>
    <v>       0.36111111       0.86111111       0.40575000 </v>
    <v>       0.41666667       0.80555556       0.40575000 </v>
    <v>       0.36111111       0.80555556       0.44345000 </v>
    <v>       0.41666667       0.86111111       0.44345000 </v>
    <v>       0.36111111       0.86111111       0.48115000 </v>
    <v>       0.41666667       0.80555556       0.48115000 </v>
    <v>       0.36111111       0.80555556       0.51885000 </v>
    <v>       0.41666667       0.86111111       0.51885000 </v>
    <v>       0.36111111       0.86111111       0.55655000 </v>
    <v>       0.41666667       0.80555556       0.55655000 </v>
    <v>       0.36111111       0.80555556       0.59425000 </v>
    <v>       0.41666667       0.86111111       0.59425000 </v>
    <v>       0.36111111       0.91666667       0.36805000 </v>
    <v>       0.41666667       0.97222222       0.36805000 </v>
    <v>       0.36111111       0.97222222       0.40575000 </v>
    <v>       0.41666667       0.91666667       0.40575000 </v>
    <v>       0.36111111       0.91666667       0.44345000 </v>
    <v>       0.41666667       0.97222222       0.44345000 </v>
    <v>       0.36111111       0.97222222       0.48115000 </v>
    <v>       0.41666667       0.91666667       0.48115000 </v>
    <v>       0.36111111       0.91666667       0.51885000 </v>
    <v>       0.41666667       0.97222222       0.51885000 </v>
    <v>       0.36111111       0.97222222       0.55655000 </v>
    <v>       0.41666667       0.91666667       0.55655000 </v>
    <v>       0.36111111       0.91666667       0.59425000 </v>
    <v>       0.41666667       0.97222222       0.59425000 </v>
    <v>       0.47222222       0.02777778       0.36805000 </v>
    <v>       0.52777778       0.08333333       0.36805000 </v>
    <v>       0.47222222       0.08333333       0.40575000 </v>
    <v>       0.52777778       0.02777778       0.40575000 </v>
    <v>       0.47222222       0.02777778       0.44345000 </v>
    <v>       0.52777778       0.08333333       0.44345000 </v>
    <v>       0.47222222       0.08333333       0.48115000 </v>
    <v>       0.52777778       0.02777778       0.48115000 </v>
    <v>       0.47222222       0.02777778       0.51885000 </v>
    <v>       0.52777778       0.08333333       0.51885000 </v>
    <v>       0.47222222       0.08333333       0.55655000 </v>
    <v>       0.52777778       0.02777778       0.55655000 </v>
    <v>       0.47222222       0.02777778       0.59425000 </v>
    <v>       0.52777778       0.08333333       0.59425000 </v>
    <v>       0.47222222       0.13888889       0.36805000 </v>
    <v>       0.52777778       0.19444444       0.36805000 </v>
    <v>       0.47222222       0.19444444       0.40575000 </v>
    <v>       0.52777778       0.13888889       0.40575000 </v>
    <v>       0.47222222       0.13888889       0.44345000 </v>
    <v>       0.52777778       0.19444444       0.44345000 </v>
    <v>       0.47222222       0.19444444       0.48115000 </v>
    <v>       0.52777778       0.13888889       0.48115000 </v>
    <v>       0.47222222       0.13888889       0.51885000 </v>
    <v>       0.52777778       0.19444444       0.51885000 </v>
    <v>       0.47222222       0.19444444       0.55655000 </v>
    <v>       0.52777778       0.13888889       0.55655000 </v>
    <v>       0.47222222       0.13888889       0.59425000 </v>
    <v>       0.52777778       0.19444444       0.59425000 </v>
    <v>       0.47222222       0.25000000       0.36805000 </v>
    <v>       0.52777778       0.30555556       0.36805000 </v>
    <v>       0.47222222       0.30555556       0.40575000 </v>
    <v>       0.52777778       0.25000000       0.40575000 </v>
    <v>       0.47222222       0.25000000       0.44345000 </v>
    <v>       0.52777778       0.30555556       0.44345000 </v>
    <v>       0.47222222       0.30555556       0.48115000 </v>
    <v>       0.52777778       0.25000000       0.48115000 </v>
    <v>       0.47222222       0.25000000       0.51885000 </v>
    <v>       0.52777778       0.30555556       0.51885000 </v>
    <v>       0.47222222       0.30555556       0.55655000 </v>
    <v>       0.52777778       0.25000000       0.55655000 </v>
    <v>       0.47222222       0.25000000       0.59425000 </v>
    <v>       0.52777778       0.30555556       0.59425000 </v>
    <v>       0.47222222       0.36111111       0.36805000 </v>
    <v>       0.52777778       0.41666667       0.36805000 </v>
    <v>       0.47222222       0.41666667       0.40575000 </v>
    <v>       0.52777778       0.36111111       0.40575000 </v>
    <v>       0.47222222       0.36111111       0.44345000 </v>
    <v>       0.52777778       0.41666667       0.44345000 </v>
    <v>       0.47222222       0.41666667       0.48115000 </v>
    <v>       0.52777778       0.36111111       0.48115000 </v>
    <v>       0.47222222       0.36111111       0.51885000 </v>
    <v>       0.52777778       0.41666667       0.51885000 </v>
    <v>       0.47222222       0.41666667       0.55655000 </v>
    <v>       0.52777778       0.36111111       0.55655000 </v>
    <v>       0.47222222       0.36111111       0.59425000 </v>
    <v>       0.52777778       0.41666667       0.59425000 </v>
    <v>       0.47222222       0.47222222       0.36805000 </v>
    <v>       0.52777778       0.52777778       0.36805000 </v>
    <v>       0.47222222       0.52777778       0.40575000 </v>
    <v>       0.52777778       0.47222222       0.40575000 </v>
    <v>       0.47222222       0.47222222       0.44345000 </v>
    <v>       0.52777778       0.52777778       0.44345000 </v>
    <v>       0.47222222       0.52777778       0.48115000 </v>
    <v>       0.52777778       0.47222222       0.48115000 </v>
    <v>       0.47222222       0.47222222       0.51885000 </v>
    <v>       0.52777778       0.52777778       0.51885000 </v>
    <v>       0.47222222       0.52777778       0.55655000 </v>
    <v>       0.52777778       0.47222222       0.55655000 </v>
    <v>       0.47222222       0.47222222       0.59425000 </v>
    <v>       0.52777778       0.52777778       0.59425000 </v>
    <v>       0.47222222       0.58333333       0.36805000 </v>
    <v>       0.52777778       0.63888889       0.36805000 </v>
    <v>       0.47222222       0.63888889       0.40575000 </v>
    <v>       0.52777778       0.58333333       0.40575000 </v>
    <v>       0.47222222       0.58333333       0.44345000 </v>
    <v>       0.52777778       0.63888889       0.44345000 </v>
    <v>       0.47222222       0.63888889       0.48115000 </v>
    <v>       0.52777778       0.58333333       0.48115000 </v>
    <v>       0.47222222       0.58333333       0.51885000 </v>
    <v>       0.52777778       0.63888889       0.51885000 </v>
    <v>       0.47222222       0.63888889       0.55655000 </v>
    <v>       0.52777778       0.58333333       0.55655000 </v>
    <v>       0.47222222       0.58333333       0.59425000 </v>
    <v>       0.52777778       0.63888889       0.59425000 </v>
    <v>       0.47222222       0.69444444       0.36805000 </v>
    <v>       0.52777778       0.75000000       0.36805000 </v>
    <v>       0.47222222       0.75000000       0.40575000 </v>
    <v>       0.52777778       0.69444444       0.40575000 </v>
    <v>       0.47222222       0.69444444       0.44345000 </v>
    <v>       0.52777778       0.75000000       0.44345000 </v>
    <v>       0.47222222       0.75000000       0.48115000 </v>
    <v>       0.52777778       0.69444444       0.48115000 </v>
    <v>       0.47222222       0.69444444       0.51885000 </v>
    <v>       0.52777778       0.75000000       0.51885000 </v>
    <v>       0.47222222       0.75000000       0.55655000 </v>
    <v>       0.52777778       0.69444444       0.55655000 </v>
    <v>       0.47222222       0.69444444       0.59425000 </v>
    <v>       0.52777778       0.75000000       0.59425000 </v>
    <v>       0.47222222       0.80555556       0.36805000 </v>
    <v>       0.52777778       0.86111111       0.36805000 </v>
    <v>       0.47222222       0.86111111       0.40575000 </v>
    <v>       0.52777778       0.80555556       0.40575000 </v>
    <v>       0.47222222       0.80555556       0.44345000 </v>
    <v>       0.52777778       0.86111111       0.44345000 </v>
    <v>       0.47222222       0.86111111       0.48115000 </v>
    <v>       0.52777778       0.80555556       0.48115000 </v>
    <v>       0.47222222       0.80555556       0.51885000 </v>
    <v>       0.52777778       0.86111111       0.51885000 </v>
    <v>       0.47222222       0.86111111       0.55655000 </v>
    <v>       0.52777778       0.80555556       0.55655000 </v>
    <v>       0.47222222       0.80555556       0.59425000 </v>
    <v>       0.52777778       0.86111111       0.59425000 </v>
    <v>       0.47222222       0.91666667       0.36805000 </v>
    <v>       0.52777778       0.97222222       0.36805000 </v>
    <v>       0.47222222       0.97222222       0.40575000 </v>
    <v>       0.52777778       0.91666667       0.40575000 </v>
    <v>       0.47222222       0.91666667       0.44345000 </v>
    <v>       0.52777778       0.97222222       0.44345000 </v>
    <v>       0.47222222       0.97222222       0.48115000 </v>
    <v>       0.52777778       0.91666667       0.48115000 </v>
    <v>       0.47222222       0.91666667       0.51885000 </v>
    <v>       0.52777778       0.97222222       0.51885000 </v>
    <v>       0.47222222       0.97222222       0.55655000 </v>
    <v>       0.52777778       0.91666667       0.55655000 </v>
    <v>       0.47222222       0.91666667       0.59425000 </v>
    <v>       0.52777778       0.97222222       0.59425000 </v>
    <v>       0.58333333       0.02777778       0.36805000 </v>
    <v>       0.63888889       0.08333333       0.36805000 </v>
    <v>       0.58333333       0.08333333       0.40575000 </v>
    <v>       0.63888889       0.02777778       0.40575000 </v>
    <v>       0.58333333       0.02777778       0.44345000 </v>
    <v>       0.63888889       0.08333333       0.44345000 </v>
    <v>       0.58333333       0.08333333       0.48115000 </v>
    <v>       0.63888889       0.02777778       0.48115000 </v>
    <v>       0.58333333       0.02777778       0.51885000 </v>
    <v>       0.63888889       0.08333333       0.51885000 </v>
    <v>       0.58333333       0.08333333       0.55655000 </v>
    <v>       0.63888889       0.02777778       0.55655000 </v>
    <v>       0.58333333       0.02777778       0.59425000 </v>
    <v>       0.63888889       0.08333333       0.59425000 </v>
    <v>       0.58333333       0.13888889       0.36805000 </v>
    <v>       0.63888889       0.19444444       0.36805000 </v>
    <v>       0.58333333       0.19444444       0.40575000 </v>
    <v>       0.63888889       0.13888889       0.40575000 </v>
    <v>       0.58333333       0.13888889       0.44345000 </v>
    <v>       0.63888889       0.19444444       0.44345000 </v>
    <v>       0.58333333       0.19444444       0.48115000 </v>
    <v>       0.63888889       0.13888889       0.48115000 </v>
    <v>       0.58333333       0.13888889       0.51885000 </v>
    <v>       0.63888889       0.19444444       0.51885000 </v>
    <v>       0.58333333       0.19444444       0.55655000 </v>
    <v>       0.63888889       0.13888889       0.55655000 </v>
    <v>       0.58333333       0.13888889       0.59425000 </v>
    <v>       0.63888889       0.19444444       0.59425000 </v>
    <v>       0.58333333       0.25000000       0.36805000 </v>
    <v>       0.63888889       0.30555556       0.36805000 </v>
    <v>       0.58333333       0.30555556       0.40575000 </v>
    <v>       0.63888889       0.25000000       0.40575000 </v>
    <v>       0.58333333       0.25000000       0.44345000 </v>
    <v>       0.63888889       0.30555556       0.44345000 </v>
    <v>       0.58333333       0.30555556       0.48115000 </v>
    <v>       0.63888889       0.25000000       0.48115000 </v>
    <v>       0.58333333       0.25000000       0.51885000 </v>
    <v>       0.63888889       0.30555556       0.51885000 </v>
    <v>       0.58333333       0.30555556       0.55655000 </v>
    <v>       0.63888889       0.25000000       0.55655000 </v>
    <v>       0.58333333       0.25000000       0.59425000 </v>
    <v>       0.63888889       0.30555556       0.59425000 </v>
    <v>       0.58333333       0.36111111       0.36805000 </v>
    <v>       0.63888889       0.41666667       0.36805000 </v>
    <v>       0.58333333       0.41666667       0.40575000 </v>
    <v>       0.63888889       0.36111111       0.40575000 </v>
    <v>       0.58333333       0.36111111       0.44345000 </v>
    <v>       0.63888889       0.41666667       0.44345000 </v>
    <v>       0.58333333       0.41666667       0.48115000 </v>
    <v>       0.63888889       0.36111111       0.48115000 </v>
    <v>       0.58333333       0.36111111       0.51885000 </v>
    <v>       0.63888889       0.41666667       0.51885000 </v>
    <v>       0.58333333       0.41666667       0.55655000 </v>
    <v>       0.63888889       0.36111111       0.55655000 </v>
    <v>       0.58333333       0.36111111       0.59425000 </v>
    <v>       0.63888889       0.41666667       0.59425000 </v>
    <v>       0.58333333       0.47222222       0.36805000 </v>
    <v>       0.63888889       0.52777778       0.36805000 </v>
    <v>       0.58333333       0.52777778       0.40575000 </v>
    <v>       0.63888889       0.47222222       0.40575000 </v>
    <v>       0.58333333       0.47222222       0.44345000 </v>
    <v>       0.63888889       0.52777778       0.44345000 </v>
    <v>       0.58333333       0.52777778       0.48115000 </v>
    <v>       0.63888889       0.47222222       0.48115000 </v>
    <v>       0.58333333       0.47222222       0.51885000 </v>
    <v>       0.63888889       0.52777778       0.51885000 </v>
    <v>       0.58333333       0.52777778       0.55655000 </v>
    <v>       0.63888889       0.47222222       0.55655000 </v>
    <v>       0.58333333       0.47222222       0.59425000 </v>
    <v>       0.63888889       0.52777778       0.59425000 </v>
    <v>       0.58333333       0.58333333       0.36805000 </v>
    <v>       0.63888889       0.63888889       0.36805000 </v>
    <v>       0.58333333       0.63888889       0.40575000 </v>
    <v>       0.63888889       0.58333333       0.40575000 </v>
    <v>       0.58333333       0.58333333       0.44345000 </v>
    <v>       0.63888889       0.63888889       0.44345000 </v>
    <v>       0.58333333       0.63888889       0.48115000 </v>
    <v>       0.63888889       0.58333333       0.48115000 </v>
    <v>       0.58333333       0.58333333       0.51885000 </v>
    <v>       0.63888889       0.63888889       0.51885000 </v>
    <v>       0.58333333       0.63888889       0.55655000 </v>
    <v>       0.63888889       0.58333333       0.55655000 </v>
    <v>       0.58333333       0.58333333       0.59425000 </v>
    <v>       0.63888889       0.63888889       0.59425000 </v>
    <v>       0.58333333       0.69444444       0.36805000 </v>
    <v>       0.63888889       0.75000000       0.36805000 </v>
    <v>       0.58333333       0.75000000       0.40575000 </v>
    <v>       0.63888889       0.69444444       0.40575000 </v>
    <v>       0.58333333       0.69444444       0.44345000 </v>
    <v>       0.63888889       0.75000000       0.44345000 </v>
    <v>       0.58333333       0.75000000       0.48115000 </v>
    <v>       0.63888889       0.69444444       0.48115000 </v>
    <v>       0.58333333       0.69444444       0.51885000 </v>
    <v>       0.63888889       0.75000000       0.51885000 </v>
    <v>       0.58333333       0.75000000       0.55655000 </v>
    <v>       0.63888889       0.69444444       0.55655000 </v>
    <v>       0.58333333       0.69444444       0.59425000 </v>
    <v>       0.63888889       0.75000000       0.59425000 </v>
    <v>       0.58333333       0.80555556       0.36805000 </v>
    <v>       0.63888889       0.86111111       0.36805000 </v>
    <v>       0.58333333       0.86111111       0.40575000 </v>
    <v>       0.63888889       0.80555556       0.40575000 </v>
    <v>       0.58333333       0.80555556       0.44345000 </v>
    <v>       0.63888889       0.86111111       0.44345000 </v>
    <v>       0.58333333       0.86111111       0.48115000 </v>
    <v>       0.63888889       0.80555556       0.48115000 </v>
    <v>       0.58333333       0.80555556       0.51885000 </v>
    <v>       0.63888889       0.86111111       0.51885000 </v>
    <v>       0.58333333       0.86111111       0.55655000 </v>
    <v>       0.63888889       0.80555556       0.55655000 </v>
    <v>       0.58333333       0.80555556       0.59425000 </v>
    <v>       0.63888889       0.86111111       0.59425000 </v>
    <v>       0.58333333       0.91666667       0.36805000 </v>
    <v>       0.63888889       0.97222222       0.36805000 </v>
    <v>       0.58333333       0.97222222       0.40575000 </v>
    <v>       0.63888889       0.91666667       0.40575000 </v>
    <v>       0.58333333       0.91666667       0.44345000 </v>
    <v>       0.63888889       0.97222222       0.44345000 </v>
    <v>       0.58333333       0.97222222       0.48115000 </v>
    <v>       0.63888889       0.91666667       0.48115000 </v>
    <v>       0.58333333       0.91666667       0.51885000 </v>
    <v>       0.63888889       0.97222222       0.51885000 </v>
    <v>       0.58333333       0.97222222       0.55655000 </v>
    <v>       0.63888889       0.91666667       0.55655000 </v>
    <v>       0.58333333       0.91666667       0.59425000 </v>
    <v>       0.63888889       0.97222222       0.59425000 </v>
    <v>       0.69444444       0.02777778       0.36805000 </v>
    <v>       0.75000000       0.08333333       0.36805000 </v>
    <v>       0.69444444       0.08333333       0.40575000 </v>
    <v>       0.75000000       0.02777778       0.40575000 </v>
    <v>       0.69444444       0.02777778       0.44345000 </v>
    <v>       0.75000000       0.08333333       0.44345000 </v>
    <v>       0.69444444       0.08333333       0.48115000 </v>
    <v>       0.75000000       0.02777778       0.48115000 </v>
    <v>       0.69444444       0.02777778       0.51885000 </v>
    <v>       0.75000000       0.08333333       0.51885000 </v>
    <v>       0.69444444       0.08333333       0.55655000 </v>
    <v>       0.75000000       0.02777778       0.55655000 </v>
    <v>       0.69444444       0.02777778       0.59425000 </v>
    <v>       0.75000000       0.08333333       0.59425000 </v>
    <v>       0.69444444       0.13888889       0.36805000 </v>
    <v>       0.75000000       0.19444444       0.36805000 </v>
    <v>       0.69444444       0.19444444       0.40575000 </v>
    <v>       0.75000000       0.13888889       0.40575000 </v>
    <v>       0.69444444       0.13888889       0.44345000 </v>
    <v>       0.75000000       0.19444444       0.44345000 </v>
    <v>       0.69444444       0.19444444       0.48115000 </v>
    <v>       0.75000000       0.13888889       0.48115000 </v>
    <v>       0.69444444       0.13888889       0.51885000 </v>
    <v>       0.75000000       0.19444444       0.51885000 </v>
    <v>       0.69444444       0.19444444       0.55655000 </v>
    <v>       0.75000000       0.13888889       0.55655000 </v>
    <v>       0.69444444       0.13888889       0.59425000 </v>
    <v>       0.75000000       0.19444444       0.59425000 </v>
    <v>       0.69444444       0.25000000       0.36805000 </v>
    <v>       0.75000000       0.30555556       0.36805000 </v>
    <v>       0.69444444       0.30555556       0.40575000 </v>
    <v>       0.75000000       0.25000000       0.40575000 </v>
    <v>       0.69444444       0.25000000       0.44345000 </v>
    <v>       0.75000000       0.30555556       0.44345000 </v>
    <v>       0.69444444       0.30555556       0.48115000 </v>
    <v>       0.75000000       0.25000000       0.48115000 </v>
    <v>       0.69444444       0.25000000       0.51885000 </v>
    <v>       0.75000000       0.30555556       0.51885000 </v>
    <v>       0.69444444       0.30555556       0.55655000 </v>
    <v>       0.75000000       0.25000000       0.55655000 </v>
    <v>       0.69444444       0.25000000       0.59425000 </v>
    <v>       0.75000000       0.30555556       0.59425000 </v>
    <v>       0.69444444       0.36111111       0.36805000 </v>
    <v>       0.75000000       0.41666667       0.36805000 </v>
    <v>       0.69444444       0.41666667       0.40575000 </v>
    <v>       0.75000000       0.36111111       0.40575000 </v>
    <v>       0.69444444       0.36111111       0.44345000 </v>
    <v>       0.75000000       0.41666667       0.44345000 </v>
    <v>       0.69444444       0.41666667       0.48115000 </v>
    <v>       0.75000000       0.36111111       0.48115000 </v>
    <v>       0.69444444       0.36111111       0.51885000 </v>
    <v>       0.75000000       0.41666667       0.51885000 </v>
    <v>       0.69444444       0.41666667       0.55655000 </v>
    <v>       0.75000000       0.36111111       0.55655000 </v>
    <v>       0.69444444       0.36111111       0.59425000 </v>
    <v>       0.75000000       0.41666667       0.59425000 </v>
    <v>       0.69444444       0.47222222       0.36805000 </v>
    <v>       0.75000000       0.52777778       0.36805000 </v>
    <v>       0.69444444       0.52777778       0.40575000 </v>
    <v>       0.75000000       0.47222222       0.40575000 </v>
    <v>       0.69444444       0.47222222       0.44345000 </v>
    <v>       0.75000000       0.52777778       0.44345000 </v>
    <v>       0.69444444       0.52777778       0.48115000 </v>
    <v>       0.75000000       0.47222222       0.48115000 </v>
    <v>       0.69444444       0.47222222       0.51885000 </v>
    <v>       0.75000000       0.52777778       0.51885000 </v>
    <v>       0.69444444       0.52777778       0.55655000 </v>
    <v>       0.75000000       0.47222222       0.55655000 </v>
    <v>       0.69444444       0.47222222       0.59425000 </v>
    <v>       0.75000000       0.52777778       0.59425000 </v>
    <v>       0.69444444       0.58333333       0.36805000 </v>
    <v>       0.75000000       0.63888889       0.36805000 </v>
    <v>       0.69444444       0.63888889       0.40575000 </v>
    <v>       0.75000000       0.58333333       0.40575000 </v>
    <v>       0.69444444       0.58333333       0.44345000 </v>
    <v>       0.75000000       0.63888889       0.44345000 </v>
    <v>       0.69444444       0.63888889       0.48115000 </v>
    <v>       0.75000000       0.58333333       0.48115000 </v>
    <v>       0.69444444       0.58333333       0.51885000 </v>
    <v>       0.75000000       0.63888889       0.51885000 </v>
    <v>       0.69444444       0.63888889       0.55655000 </v>
    <v>       0.75000000       0.58333333       0.55655000 </v>
    <v>       0.69444444       0.58333333       0.59425000 </v>
    <v>       0.75000000       0.63888889       0.59425000 </v>
    <v>       0.69444444       0.69444444       0.36805000 </v>
    <v>       0.75000000       0.75000000       0.36805000 </v>
    <v>       0.69444444       0.75000000       0.40575000 </v>
    <v>       0.75000000       0.69444444       0.40575000 </v>
    <v>       0.69444444       0.69444444       0.44345000 </v>
    <v>       0.75000000       0.75000000       0.44345000 </v>
    <v>       0.69444444       0.75000000       0.48115000 </v>
    <v>       0.75000000       0.69444444       0.48115000 </v>
    <v>       0.69444444       0.69444444       0.51885000 </v>
    <v>       0.75000000       0.75000000       0.51885000 </v>
    <v>       0.69444444       0.75000000       0.55655000 </v>
    <v>       0.75000000       0.69444444       0.55655000 </v>
    <v>       0.69444444       0.69444444       0.59425000 </v>
    <v>       0.75000000       0.75000000       0.59425000 </v>
    <v>       0.69444444       0.80555556       0.36805000 </v>
    <v>       0.75000000       0.86111111       0.36805000 </v>
    <v>       0.69444444       0.86111111       0.40575000 </v>
    <v>       0.75000000       0.80555556       0.40575000 </v>
    <v>       0.69444444       0.80555556       0.44345000 </v>
    <v>       0.75000000       0.86111111       0.44345000 </v>
    <v>       0.69444444       0.86111111       0.48115000 </v>
    <v>       0.75000000       0.80555556       0.48115000 </v>
    <v>       0.69444444       0.80555556       0.51885000 </v>
    <v>       0.75000000       0.86111111       0.51885000 </v>
    <v>       0.69444444       0.86111111       0.55655000 </v>
    <v>       0.75000000       0.80555556       0.55655000 </v>
    <v>       0.69444444       0.80555556       0.59425000 </v>
    <v>       0.75000000       0.86111111       0.59425000 </v>
    <v>       0.69444444       0.91666667       0.36805000 </v>
    <v>       0.75000000       0.97222222       0.36805000 </v>
    <v>       0.69444444       0.97222222       0.40575000 </v>
    <v>       0.75000000       0.91666667       0.40575000 </v>
    <v>       0.69444444       0.91666667       0.44345000 </v>
    <v>       0.75000000       0.97222222       0.44345000 </v>
    <v>       0.69444444       0.97222222       0.48115000 </v>
    <v>       0.75000000       0.91666667       0.48115000 </v>
    <v>       0.69444444       0.91666667       0.51885000 </v>
    <v>       0.75000000       0.97222222       0.51885000 </v>
    <v>       0.69444444       0.97222222       0.55655000 </v>
    <v>       0.75000000       0.91666667       0.55655000 </v>
    <v>       0.69444444       0.91666667       0.59425000 </v>
    <v>       0.75000000       0.97222222       0.59425000 </v>
    <v>       0.80555556       0.02777778       0.36805000 </v>
    <v>       0.86111111       0.08333333       0.36805000 </v>
    <v>       0.80555556       0.08333333       0.40575000 </v>
    <v>       0.86111111       0.02777778       0.40575000 </v>
    <v>       0.80555556       0.02777778       0.44345000 </v>
    <v>       0.86111111       0.08333333       0.44345000 </v>
    <v>       0.80555556       0.08333333       0.48115000 </v>
    <v>       0.86111111       0.02777778       0.48115000 </v>
    <v>       0.80555556       0.02777778       0.51885000 </v>
    <v>       0.86111111       0.08333333       0.51885000 </v>
    <v>       0.80555556       0.08333333       0.55655000 </v>
    <v>       0.86111111       0.02777778       0.55655000 </v>
    <v>       0.80555556       0.02777778       0.59425000 </v>
    <v>       0.86111111       0.08333333       0.59425000 </v>
    <v>       0.80555556       0.13888889       0.36805000 </v>
    <v>       0.86111111       0.19444444       0.36805000 </v>
    <v>       0.80555556       0.19444444       0.40575000 </v>
    <v>       0.86111111       0.13888889       0.40575000 </v>
    <v>       0.80555556       0.13888889       0.44345000 </v>
    <v>       0.86111111       0.19444444       0.44345000 </v>
    <v>       0.80555556       0.19444444       0.48115000 </v>
    <v>       0.86111111       0.13888889       0.48115000 </v>
    <v>       0.80555556       0.13888889       0.51885000 </v>
    <v>       0.86111111       0.19444444       0.51885000 </v>
    <v>       0.80555556       0.19444444       0.55655000 </v>
    <v>       0.86111111       0.13888889       0.55655000 </v>
    <v>       0.80555556       0.13888889       0.59425000 </v>
    <v>       0.86111111       0.19444444       0.59425000 </v>
    <v>       0.80555556       0.25000000       0.36805000 </v>
    <v>       0.86111111       0.30555556       0.36805000 </v>
    <v>       0.80555556       0.30555556       0.40575000 </v>
    <v>       0.86111111       0.25000000       0.40575000 </v>
    <v>       0.80555556       0.25000000       0.44345000 </v>
    <v>       0.86111111       0.30555556       0.44345000 </v>
    <v>       0.80555556       0.30555556       0.48115000 </v>
    <v>       0.86111111       0.25000000       0.48115000 </v>
    <v>       0.80555556       0.25000000       0.51885000 </v>
    <v>       0.86111111       0.30555556       0.51885000 </v>
    <v>       0.80555556       0.30555556       0.55655000 </v>
    <v>       0.86111111       0.25000000       0.55655000 </v>
    <v>       0.80555556       0.25000000       0.59425000 </v>
    <v>       0.86111111       0.30555556       0.59425000 </v>
    <v>       0.80555556       0.36111111       0.36805000 </v>
    <v>       0.86111111       0.41666667       0.36805000 </v>
    <v>       0.80555556       0.41666667       0.40575000 </v>
    <v>       0.86111111       0.36111111       0.40575000 </v>
    <v>       0.80555556       0.36111111       0.44345000 </v>
    <v>       0.86111111       0.41666667       0.44345000 </v>
    <v>       0.80555556       0.41666667       0.48115000 </v>
    <v>       0.86111111       0.36111111       0.48115000 </v>
    <v>       0.80555556       0.36111111       0.51885000 </v>
    <v>       0.86111111       0.41666667       0.51885000 </v>
    <v>       0.80555556       0.41666667       0.55655000 </v>
    <v>       0.86111111       0.36111111       0.55655000 </v>
    <v>       0.80555556       0.36111111       0.59425000 </v>
    <v>       0.86111111       0.41666667       0.59425000 </v>
    <v>       0.80555556       0.47222222       0.36805000 </v>
    <v>       0.86111111       0.52777778       0.36805000 </v>
    <v>       0.80555556       0.52777778       0.40575000 </v>
    <v>       0.86111111       0.47222222       0.40575000 </v>
    <v>       0.80555556       0.47222222       0.44345000 </v>
    <v>       0.86111111       0.52777778       0.44345000 </v>
    <v>       0.80555556       0.52777778       0.48115000 </v>
    <v>       0.86111111       0.47222222       0.48115000 </v>
    <v>       0.80555556       0.47222222       0.51885000 </v>
    <v>       0.86111111       0.52777778       0.51885000 </v>
    <v>       0.80555556       0.52777778       0.55655000 </v>
    <v>       0.86111111       0.47222222       0.55655000 </v>
    <v>       0.80555556       0.47222222       0.59425000 </v>
    <v>       0.86111111       0.52777778       0.59425000 </v>
    <v>       0.80555556       0.58333333       0.36805000 </v>
    <v>       0.86111111       0.63888889       0.36805000 </v>
    <v>       0.80555556       0.63888889       0.40575000 </v>
    <v>       0.86111111       0.58333333       0.40575000 </v>
    <v>       0.80555556       0.58333333       0.44345000 </v>
    <v>       0.86111111       0.63888889       0.44345000 </v>
    <v>       0.80555556       0.63888889       0.48115000 </v>
    <v>       0.86111111       0.58333333       0.48115000 </v>
    <v>       0.80555556       0.58333333       0.51885000 </v>
    <v>       0.86111111       0.63888889       0.51885000 </v>
    <v>       0.80555556       0.63888889       0.55655000 </v>
    <v>       0.86111111       0.58333333       0.55655000 </v>
    <v>       0.80555556       0.58333333       0.59425000 </v>
    <v>       0.86111111       0.63888889       0.59425000 </v>
    <v>       0.80555556       0.69444444       0.36805000 </v>
    <v>       0.86111111       0.75000000       0.36805000 </v>
    <v>       0.80555556       0.75000000       0.40575000 </v>
    <v>       0.86111111       0.69444444       0.40575000 </v>
    <v>       0.80555556       0.69444444       0.44345000 </v>
    <v>       0.86111111       0.75000000       0.44345000 </v>
    <v>       0.80555556       0.75000000       0.48115000 </v>
    <v>       0.86111111       0.69444444       0.48115000 </v>
    <v>       0.80555556       0.69444444       0.51885000 </v>
    <v>       0.86111111       0.75000000       0.51885000 </v>
    <v>       0.80555556       0.75000000       0.55655000 </v>
    <v>       0.86111111       0.69444444       0.55655000 </v>
    <v>       0.80555556       0.69444444       0.59425000 </v>
    <v>       0.86111111       0.75000000       0.59425000 </v>
    <v>       0.80555556       0.80555556       0.36805000 </v>
    <v>       0.86111111       0.86111111       0.36805000 </v>
    <v>       0.80555556       0.86111111       0.40575000 </v>
    <v>       0.86111111       0.80555556       0.40575000 </v>
    <v>       0.80555556       0.80555556       0.44345000 </v>
    <v>       0.86111111       0.86111111       0.44345000 </v>
    <v>       0.80555556       0.86111111       0.48115000 </v>
    <v>       0.86111111       0.80555556       0.48115000 </v>
    <v>       0.80555556       0.80555556       0.51885000 </v>
    <v>       0.86111111       0.86111111       0.51885000 </v>
    <v>       0.80555556       0.86111111       0.55655000 </v>
    <v>       0.86111111       0.80555556       0.55655000 </v>
    <v>       0.80555556       0.80555556       0.59425000 </v>
    <v>       0.86111111       0.86111111       0.59425000 </v>
    <v>       0.80555556       0.91666667       0.36805000 </v>
    <v>       0.86111111       0.97222222       0.36805000 </v>
    <v>       0.80555556       0.97222222       0.40575000 </v>
    <v>       0.86111111       0.91666667       0.40575000 </v>
    <v>       0.80555556       0.91666667       0.44345000 </v>
    <v>       0.86111111       0.97222222       0.44345000 </v>
    <v>       0.80555556       0.97222222       0.48115000 </v>
    <v>       0.86111111       0.91666667       0.48115000 </v>
    <v>       0.80555556       0.91666667       0.51885000 </v>
    <v>       0.86111111       0.97222222       0.51885000 </v>
    <v>       0.80555556       0.97222222       0.55655000 </v>
    <v>       0.86111111       0.91666667       0.55655000 </v>
    <v>       0.80555556       0.91666667       0.59425000 </v>
    <v>       0.86111111       0.97222222       0.59425000 </v>
    <v>       0.91666667       0.02777778       0.36805000 </v>
    <v>       0.97222222       0.08333333       0.36805000 </v>
    <v>       0.91666667       0.08333333       0.40575000 </v>
    <v>       0.97222222       0.02777778       0.40575000 </v>
    <v>       0.91666667       0.02777778       0.44345000 </v>
    <v>       0.97222222       0.08333333       0.44345000 </v>
    <v>       0.91666667       0.08333333       0.48115000 </v>
    <v>       0.97222222       0.02777778       0.48115000 </v>
    <v>       0.91666667       0.02777778       0.51885000 </v>
    <v>       0.97222222       0.08333333       0.51885000 </v>
    <v>       0.91666667       0.08333333       0.55655000 </v>
    <v>       0.97222222       0.02777778       0.55655000 </v>
    <v>       0.91666667       0.02777778       0.59425000 </v>
    <v>       0.97222222       0.08333333       0.59425000 </v>
    <v>       0.91666667       0.13888889       0.36805000 </v>
    <v>       0.97222222       0.19444444       0.36805000 </v>
    <v>       0.91666667       0.19444444       0.40575000 </v>
    <v>       0.97222222       0.13888889       0.40575000 </v>
    <v>       0.91666667       0.13888889       0.44345000 </v>
    <v>       0.97222222       0.19444444       0.44345000 </v>
    <v>       0.91666667       0.19444444       0.48115000 </v>
    <v>       0.97222222       0.13888889       0.48115000 </v>
    <v>       0.91666667       0.13888889       0.51885000 </v>
    <v>       0.97222222       0.19444444       0.51885000 </v>
    <v>       0.91666667       0.19444444       0.55655000 </v>
    <v>       0.97222222       0.13888889       0.55655000 </v>
    <v>       0.91666667       0.13888889       0.59425000 </v>
    <v>       0.97222222       0.19444444       0.59425000 </v>
    <v>       0.91666667       0.25000000       0.36805000 </v>
    <v>       0.97222222       0.30555556       0.36805000 </v>
    <v>       0.91666667       0.30555556       0.40575000 </v>
    <v>       0.97222222       0.25000000       0.40575000 </v>
    <v>       0.91666667       0.25000000       0.44345000 </v>
    <v>       0.97222222       0.30555556       0.44345000 </v>
    <v>       0.91666667       0.30555556       0.48115000 </v>
    <v>       0.97222222       0.25000000       0.48115000 </v>
    <v>       0.91666667       0.25000000       0.51885000 </v>
    <v>       0.97222222       0.30555556       0.51885000 </v>
    <v>       0.91666667       0.30555556       0.55655000 </v>
    <v>       0.97222222       0.25000000       0.55655000 </v>
    <v>       0.91666667       0.25000000       0.59425000 </v>
    <v>       0.97222222       0.30555556       0.59425000 </v>
    <v>       0.91666667       0.36111111       0.36805000 </v>
    <v>       0.97222222       0.41666667       0.36805000 </v>
    <v>       0.91666667       0.41666667       0.40575000 </v>
    <v>       0.97222222       0.36111111       0.40575000 </v>
    <v>       0.91666667       0.36111111       0.44345000 </v>
    <v>       0.97222222       0.41666667       0.44345000 </v>
    <v>       0.91666667       0.41666667       0.48115000 </v>
    <v>       0.97222222       0.36111111       0.48115000 </v>
    <v>       0.91666667       0.36111111       0.51885000 </v>
    <v>       0.97222222       0.41666667       0.51885000 </v>
    <v>       0.91666667       0.41666667       0.55655000 </v>
    <v>       0.97222222       0.36111111       0.55655000 </v>
    <v>       0.91666667       0.36111111       0.59425000 </v>
    <v>       0.97222222       0.41666667       0.59425000 </v>
    <v>       0.91666667       0.47222222       0.36805000 </v>
    <v>       0.97222222       0.52777778       0.36805000 </v>
    <v>       0.91666667       0.52777778       0.40575000 </v>
    <v>       0.97222222       0.47222222       0.40575000 </v>
    <v>       0.91666667       0.47222222       0.44345000 </v>
    <v>       0.97222222       0.52777778       0.44345000 </v>
    <v>       0.91666667       0.52777778       0.48115000 </v>
    <v>       0.97222222       0.47222222       0.48115000 </v>
    <v>       0.91666667       0.47222222       0.51885000 </v>
    <v>       0.97222222       0.52777778       0.51885000 </v>
    <v>       0.91666667       0.52777778       0.55655000 </v>
    <v>       0.97222222       0.47222222       0.55655000 </v>
    <v>       0.91666667       0.47222222       0.59425000 </v>
    <v>       0.97222222       0.52777778       0.59425000 </v>
    <v>       0.91666667       0.58333333       0.36805000 </v>
    <v>       0.97222222       0.63888889       0.36805000 </v>
    <v>       0.91666667       0.63888889       0.40575000 </v>
    <v>       0.97222222       0.58333333       0.40575000 </v>
    <v>       0.91666667       0.58333333       0.44345000 </v>
    <v>       0.97222222       0.63888889       0.44345000 </v>
    <v>       0.91666667       0.63888889       0.48115000 </v>
    <v>       0.97222222       0.58333333       0.48115000 </v>
    <v>       0.91666667       0.58333333       0.51885000 </v>
    <v>       0.97222222       0.63888889       0.51885000 </v>
    <v>       0.91666667       0.63888889       0.55655000 </v>
    <v>       0.97222222       0.58333333       0.55655000 </v>
    <v>       0.91666667       0.58333333       0.59425000 </v>
    <v>       0.97222222       0.63888889       0.59425000 </v>
    <v>       0.91666667       0.69444444       0.36805000 </v>
    <v>       0.97222222       0.75000000       0.36805000 </v>
    <v>       0.91666667       0.75000000       0.40575000 </v>
    <v>       0.97222222       0.69444444       0.40575000 </v>
    <v>       0.91666667       0.69444444       0.44345000 </v>
    <v>       0.97222222       0.75000000       0.44345000 </v>
    <v>       0.91666667       0.75000000       0.48115000 </v>
    <v>       0.97222222       0.69444444       0.48115000 </v>
    <v>       0.91666667       0.69444444       0.51885000 </v>
    <v>       0.97222222       0.75000000       0.51885000 </v>
    <v>       0.91666667       0.75000000       0.55655000 </v>
    <v>       0.97222222       0.69444444       0.55655000 </v>
    <v>       0.91666667       0.69444444       0.59425000 </v>
    <v>       0.97222222       0.75000000       0.59425000 </v>
    <v>       0.91666667       0.80555556       0.36805000 </v>
    <v>       0.97222222       0.86111111       0.36805000 </v>
    <v>       0.91666667       0.86111111       0.40575000 </v>
    <v>       0.97222222       0.80555556       0.40575000 </v>
    <v>       0.91666667       0.80555556       0.44345000 </v>
    <v>       0.97222222       0.86111111       0.44345000 </v>
    <v>       0.91666667       0.86111111       0.48115000 </v>
    <v>       0.97222222       0.80555556       0.48115000 </v>
    <v>       0.91666667       0.80555556       0.51885000 </v>
    <v>       0.97222222       0.86111111       0.51885000 </v>
    <v>       0.91666667       0.86111111       0.55655000 </v>
    <v>       0.97222222       0.80555556       0.55655000 </v>
    <v>       0.91666667       0.80555556       0.59425000 </v>
    <v>       0.97222222       0.86111111       0.59425000 </v>
    <v>       0.91666667       0.91666667       0.36805000 </v>
    <v>       0.97222222       0.97222222       0.36805000 </v>
    <v>       0.91666667       0.97222222       0.40575000 </v>
    <v>       0.97222222       0.91666667       0.40575000 </v>
    <v>       0.91666667       0.91666667       0.44345000 </v>
    <v>       0.97222222       0.97222222       0.44345000 </v>
    <v>       0.91666667       0.97222222       0.48115000 </v>
    <v>       0.97222222       0.91666667       0.48115000 </v>
    <v>       0.91666667       0.91666667       0.51885000 </v>
    <v>       0.97222222       0.97222222       0.51885000 </v>
    <v>       0.91666667       0.97222222       0.55655000 </v>
    <v>       0.97222222       0.91666667       0.55655000 </v>
    <v>       0.91666667       0.91666667       0.59425000 </v>
    <v>       0.97222222       0.97222222       0.59425000 </v>
    <v>       0.39787798       0.44208665       0.72545000 </v>
    <v>       0.42859614       0.46901049       0.71860500 </v>
    <v>       0.43806398       0.46586899       0.68869104 </v>
    <v>       0.46878078       0.49279546       0.68184800 </v>
    <v>       0.41452505       0.47211264       0.67696704 </v>
    <v>       0.50585662       0.51206920       0.64144804 </v>
    <v>       0.45213504       0.46276617       0.73033102 </v>
    <v>       0.40665031       0.41495149       0.72114600 </v>
    <v>       0.49231969       0.48655113       0.69357104 </v>
    <v>       0.46000978       0.51992732       0.68615200 </v>
    <v>       0.41982514       0.49614232       0.72291102 </v>
    <v>       0.44683495       0.43873646       0.68438704 </v>
    <v>       0.37434041       0.44832765       0.71372600 </v>
    <v>       0.39130156       0.44426858       0.74623402 </v>
    <v>       0.47972370       0.48916581       0.64727200 </v>
   </varray>
  </structure>
  <varray name="primitive_index" >
   <v type="int" >        1 </v>
   <v type="int" >        2 </v>
   <v type="int" >        3 </v>
   <v type="int" >        4 </v>
   <v type="int" >        5 </v>
   <v type="int" >        6 </v>
   <v type="int" >        7 </v>
   <v type="int" >        8 </v>
   <v type="int" >        9 </v>
   <v type="int" >       10 </v>
   <v type="int" >       11 </v>
   <v type="int" >       12 </v>
   <v type="int" >       13 </v>
   <v type="int" >       14 </v>
   <v type="int" >       15 </v>
   <v type="int" >       16 </v>
   <v type="int" >       17 </v>
   <v type="int" >       18 </v>
   <v type="int" >       19 </v>
   <v type="int" >       20 </v>
   <v type="int" >       21 </v>
   <v type="int" >       22 </v>
   <v type="int" >       23 </v>
   <v type="int" >       24 </v>
   <v type="int" >       25 </v>
   <v type="int" >       26 </v>
   <v type="int" >       27 </v>
   <v type="int" >       28 </v>
   <v type="int" >       29 </v>
   <v type="int" >       30 </v>
   <v type="int" >       31 </v>
   <v type="int" >       32 </v>
   <v type="int" >       33 </v>
   <v type="int" >       34 </v>
   <v type="int" >       35 </v>
   <v type="int" >       36 </v>
   <v type="int" >       37 </v>
   <v type="int" >       38 </v>
   <v type="int" >       39 </v>
   <v type="int" >       40 </v>
   <v type="int" >       41 </v>
   <v type="int" >       42 </v>
   <v type="int" >       43 </v>
   <v type="int" >       44 </v>
   <v type="int" >       45 </v>
   <v type="int" >       46 </v>
   <v type="int" >       47 </v>
   <v type="int" >       48 </v>
   <v type="int" >       49 </v>
   <v type="int" >       50 </v>
   <v type="int" >       51 </v>
   <v type="int" >       52 </v>
   <v type="int" >       53 </v>
   <v type="int" >       54 </v>
   <v type="int" >       55 </v>
   <v type="int" >       56 </v>
   <v type="int" >       57 </v>
   <v type="int" >       58 </v>
   <v type="int" >       59 </v>
   <v type="int" >       60 </v>
   <v type="int" >       61 </v>
   <v type="int" >       62 </v>
   <v type="int" >       63 </v>
   <v type="int" >       64 </v>
   <v type="int" >       65 </v>
   <v type="int" >       66 </v>
   <v type="int" >       67 </v>
   <v type="int" >       68 </v>
   <v type="int" >       69 </v>
   <v type="int" >       70 </v>
   <v type="int" >       71 </v>
   <v type="int" >       72 </v>
   <v type="int" >       73 </v>
   <v type="int" >       74 </v>
   <v type="int" >       75 </v>
   <v type="int" >       76 </v>
   <v type="int" >       77 </v>
   <v type="int" >       78 </v>
   <v type="int" >       79 </v>
   <v type="int" >       80 </v>
   <v type="int" >       81 </v>
   <v type="int" >       82 </v>
   <v type="int" >       83 </v>
   <v type="int" >       84 </v>
   <v type="int" >       85 </v>
   <v type="int" >       86 </v>
   <v type="int" >       87 </v>
   <v type="int" >       88 </v>
   <v type="int" >       89 </v>
   <v type="int" >       90 </v>
   <v type="int" >       91 </v>
   <v type="int" >       92 </v>
   <v type="int" >       93 </v>
   <v type="int" >       94 </v>
   <v type="int" >       95 </v>
   <v type="int" >       96 </v>
   <v type="int" >       97 </v>
   <v type="int" >       98 </v>
   <v type="int" >       99 </v>
   <v type="int" >      100 </v>
   <v type="int" >      101 </v>
   <v type="int" >      102 </v>
   <v type="int" >      103 </v>
   <v type="int" >      104 </v>
   <v type="int" >      105 </v>
   <v type="int" >      106 </v>
   <v type="int" >      107 </v>
   <v type="int" >      108 </v>
   <v type="int" >      109 </v>
   <v type="int" >      110 </v>
   <v type="int" >      111 </v>
   <v type="int" >      112 </v>
   <v type="int" >      113 </v>
   <v type="int" >      114 </v>
   <v type="int" >      115 </v>
   <v type="int" >      116 </v>
   <v type="int" >      117 </v>
   <v type="int" >      118 </v>
   <v type="int" >      119 </v>
   <v type="int" >      120 </v>
   <v type="int" >      121 </v>
   <v type="int" >      122 </v>
   <v type="int" >      123 </v>
   <v type="int" >      124 </v>
   <v type="int" >      125 </v>
   <v type="int" >      126 </v>
   <v type="int" >      127 </v>
   <v type="int" >      128 </v>
   <v type="int" >      129 </v>
   <v type="int" >      130 </v>
   <v type="int" >      131 </v>
   <v type="int" >      132 </v>
   <v type="int" >      133 </v>
   <v type="int" >      134 </v>
   <v type="int" >      135 </v>
   <v type="int" >      136 </v>
   <v type="int" >      137 </v>
   <v type="int" >      138 </v>
   <v type="int" >      139 </v>
   <v type="int" >      140 </v>
   <v type="int" >      141 </v>
   <v type="int" >      142 </v>
   <v type="int" >      143 </v>
   <v type="int" >      144 </v>
   <v type="int" >      145 </v>
   <v type="int" >      146 </v>
   <v type="int" >      147 </v>
   <v type="int" >      148 </v>
   <v type="int" >      149 </v>
   <v type="int" >      150 </v>
   <v type="int" >      151 </v>
   <v type="int" >      152 </v>
   <v type="int" >      153 </v>
   <v type="int" >      154 </v>
   <v type="int" >      155 </v>
   <v type="int" >      156 </v>
   <v type="int" >      157 </v>
   <v type="int" >      158 </v>
   <v type="int" >      159 </v>
   <v type="int" >      160 </v>
   <v type="int" >      161 </v>
   <v type="int" >      162 </v>
   <v type="int" >      163 </v>
   <v type="int" >      164 </v>
   <v type="int" >      165 </v>
   <v type="int" >      166 </v>
   <v type="int" >      167 </v>
   <v type="int" >      168 </v>
   <v type="int" >      169 </v>
   <v type="int" >      170 </v>
   <v type="int" >      171 </v>
   <v type="int" >      172 </v>
   <v type="int" >      173 </v>
   <v type="int" >      174 </v>
   <v type="int" >      175 </v>
   <v type="int" >      176 </v>
   <v type="int" >      177 </v>
   <v type="int" >      178 </v>
   <v type="int" >      179 </v>
   <v type="int" >      180 </v>
   <v type="int" >      181 </v>
   <v type="int" >      182 </v>
   <v type="int" >      183 </v>
   <v type="int" >      184 </v>
   <v type="int" >      185 </v>
   <v type="int" >      186 </v>
   <v type="int" >      187 </v>
   <v type="int" >      188 </v>
   <v type="int" >      189 </v>
   <v type="int" >      190 </v>
   <v type="int" >      191 </v>
   <v type="int" >      192 </v>
   <v type="int" >      193 </v>
   <v type="int" >      194 </v>
   <v type="int" >      195 </v>
   <v type="int" >      196 </v>
   <v type="int" >      197 </v>
   <v type="int" >      198 </v>
   <v type="int" >      199 </v>
   <v type="int" >      200 </v>
   <v type="int" >      201 </v>
   <v type="int" >      202 </v>
   <v type="int" >      203 </v>
   <v type="int" >      204 </v>
   <v type="int" >      205 </v>
   <v type="int" >      206 </v>
   <v type="int" >      207 </v>
   <v type="int" >      208 </v>
   <v type="int" >      209 </v>
   <v type="int" >      210 </v>
   <v type="int" >      211 </v>
   <v type="int" >      212 </v>
   <v type="int" >      213 </v>
   <v type="int" >      214 </v>
   <v type="int" >      215 </v>
   <v type="int" >      216 </v>
   <v type="int" >      217 </v>
   <v type="int" >      218 </v>
   <v type="int" >      219 </v>
   <v type="int" >      220 </v>
   <v type="int" >      221 </v>
   <v type="int" >      222 </v>
   <v type="int" >      223 </v>
   <v type="int" >      224 </v>
   <v type="int" >      225 </v>
   <v type="int" >      226 </v>
   <v type="int" >      227 </v>
   <v type="int" >      228 </v>
   <v type="int" >      229 </v>
   <v type="int" >      230 </v>
   <v type="int" >      231 </v>
   <v type="int" >      232 </v>
   <v type="int" >      233 </v>
   <v type="int" >      234 </v>
   <v type="int" >      235 </v>
   <v type="int" >      236 </v>
   <v type="int" >      237 </v>
   <v type="int" >      238 </v>
   <v type="int" >      239 </v>
   <v type="int" >      240 </v>
   <v type="int" >      241 </v>
   <v type="int" >      242 </v>
   <v type="int" >      243 </v>
   <v type="int" >      244 </v>
   <v type="int" >      245 </v>
   <v type="int" >      246 </v>
   <v type="int" >      247 </v>
   <v type="int" >      248 </v>
   <v type="int" >      249 </v>
   <v type="int" >      250 </v>
   <v type="int" >      251 </v>
   <v type="int" >      252 </v>
   <v type="int" >      253 </v>
   <v type="int" >      254 </v>
   <v type="int" >      255 </v>
   <v type="int" >      256 </v>
   <v type="int" >      257 </v>
   <v type="int" >      258 </v>
   <v type="int" >      259 </v>
   <v type="int" >      260 </v>
   <v type="int" >      261 </v>
   <v type="int" >      262 </v>
   <v type="int" >      263 </v>
   <v type="int" >      264 </v>
   <v type="int" >      265 </v>
   <v type="int" >      266 </v>
   <v type="int" >      267 </v>
   <v type="int" >      268 </v>
   <v type="int" >      269 </v>
   <v type="int" >      270 </v>
   <v type="int" >      271 </v>
   <v type="int" >      272 </v>
   <v type="int" >      273 </v>
   <v type="int" >      274 </v>
   <v type="int" >      275 </v>
   <v type="int" >      276 </v>
   <v type="int" >      277 </v>
   <v type="int" >      278 </v>
   <v type="int" >      279 </v>
   <v type="int" >      280 </v>
   <v type="int" >      281 </v>
   <v type="int" >      282 </v>
   <v type="int" >      283 </v>
   <v type="int" >      284 </v>
   <v type="int" >      285 </v>
   <v type="int" >      286 </v>
   <v type="int" >      287 </v>
   <v type="int" >      288 </v>
   <v type="int" >      289 </v>
   <v type="int" >      290 </v>
   <v type="int" >      291 </v>
   <v type="int" >      292 </v>
   <v type="int" >      293 </v>
   <v type="int" >      294 </v>
   <v type="int" >      295 </v>
   <v type="int" >      296 </v>
   <v type="int" >      297 </v>
   <v type="int" >      298 </v>
   <v type="int" >      299 </v>
   <v type="int" >      300 </v>
   <v type="int" >      301 </v>
   <v type="int" >      302 </v>
   <v type="int" >      303 </v>
   <v type="int" >      304 </v>
   <v type="int" >      305 </v>
   <v type="int" >      306 </v>
   <v type="int" >      307 </v>
   <v type="int" >      308 </v>
   <v type="int" >      309 </v>
   <v type="int" >      310 </v>
   <v type="int" >      311 </v>
   <v type="int" >      312 </v>
   <v type="int" >      313 </v>
   <v type="int" >      314 </v>
   <v type="int" >      315 </v>
   <v type="int" >      316 </v>
   <v type="int" >      317 </v>
   <v type="int" >      318 </v>
   <v type="int" >      319 </v>
   <v type="int" >      320 </v>
   <v type="int" >      321 </v>
   <v type="int" >      322 </v>
   <v type="int" >      323 </v>
   <v type="int" >      324 </v>
   <v type="int" >      325 </v>
   <v type="int" >      326 </v>
   <v type="int" >      327 </v>
   <v type="int" >      328 </v>
   <v type="int" >      329 </v>
   <v type="int" >      330 </v>
   <v type="int" >      331 </v>
   <v type="int" >      332 </v>
   <v type="int" >      333 </v>
   <v type="int" >      334 </v>
   <v type="int" >      335 </v>
   <v type="int" >      336 </v>
   <v type="int" >      337 </v>
   <v type="int" >      338 </v>
   <v type="int" >      339 </v>
   <v type="int" >      340 </v>
   <v type="int" >      341 </v>
   <v type="int" >      342 </v>
   <v type="int" >      343 </v>
   <v type="int" >      344 </v>
   <v type="int" >      345 </v>
   <v type="int" >      346 </v>
   <v type="int" >      347 </v>
   <v type="int" >      348 </v>
   <v type="int" >      349 </v>
   <v type="int" >      350 </v>
   <v type="int" >      351 </v>
   <v type="int" >      352 </v>
   <v type="int" >      353 </v>
   <v type="int" >      354 </v>
   <v type="int" >      355 </v>
   <v type="int" >      356 </v>
   <v type="int" >      357 </v>
   <v type="int" >      358 </v>
   <v type="int" >      359 </v>
   <v type="int" >      360 </v>
   <v type="int" >      361 </v>
   <v type="int" >      362 </v>
   <v type="int" >      363 </v>
   <v type="int" >      364 </v>
   <v type="int" >      365 </v>
   <v type="int" >      366 </v>
   <v type="int" >      367 </v>
   <v type="int" >      368 </v>
   <v type="int" >      369 </v>
   <v type="int" >      370 </v>
   <v type="int" >      371 </v>
   <v type="int" >      372 </v>
   <v type="int" >      373 </v>
   <v type="int" >      374 </v>
   <v type="int" >      375 </v>
   <v type="int" >      376 </v>
   <v type="int" >      377 </v>
   <v type="int" >      378 </v>
   <v type="int" >      379 </v>
   <v type="int" >      380 </v>
   <v type="int" >      381 </v>
   <v type="int" >      382 </v>
   <v type="int" >      383 </v>
   <v type="int" >      384 </v>
   <v type="int" >      385 </v>
   <v type="int" >      386 </v>
   <v type="int" >      387 </v>
   <v type="int" >      388 </v>
   <v type="int" >      389 </v>
   <v type="int" >      390 </v>
   <v type="int" >      391 </v>
   <v type="int" >      392 </v>
   <v type="int" >      393 </v>
   <v type="int" >      394 </v>
   <v type="int" >      395 </v>
   <v type="int" >      396 </v>
   <v type="int" >      397 </v>
   <v type="int" >      398 </v>
   <v type="int" >      399 </v>
   <v type="int" >      400 </v>
   <v type="int" >      401 </v>
   <v type="int" >      402 </v>
   <v type="int" >      403 </v>
   <v type="int" >      404 </v>
   <v type="int" >      405 </v>
   <v type="int" >      406 </v>
   <v type="int" >      407 </v>
   <v type="int" >      408 </v>
   <v type="int" >      409 </v>
   <v type="int" >      410 </v>
   <v type="int" >      411 </v>
   <v type="int" >      412 </v>
   <v type="int" >      413 </v>
   <v type="int" >      414 </v>
   <v type="int" >      415 </v>
   <v type="int" >      416 </v>
   <v type="int" >      417 </v>
   <v type="int" >      418 </v>
   <v type="int" >      419 </v>
   <v type="int" >      420 </v>
   <v type="int" >      421 </v>
   <v type="int" >      422 </v>
   <v type="int" >      423 </v>
   <v type="int" >      424 </v>
   <v type="int" >      425 </v>
   <v type="int" >      426 </v>
   <v type="int" >      427 </v>
   <v type="int" >      428 </v>
   <v type="int" >      429 </v>
   <v type="int" >      430 </v>
   <v type="int" >      431 </v>
   <v type="int" >      432 </v>
   <v type="int" >      433 </v>
   <v type="int" >      434 </v>
   <v type="int" >      435 </v>
   <v type="int" >      436 </v>
   <v type="int" >      437 </v>
   <v type="int" >      438 </v>
   <v type="int" >      439 </v>
   <v type="int" >      440 </v>
   <v type="int" >      441 </v>
   <v type="int" >      442 </v>
   <v type="int" >      443 </v>
   <v type="int" >      444 </v>
   <v type="int" >      445 </v>
   <v type="int" >      446 </v>
   <v type="int" >      447 </v>
   <v type="int" >      448 </v>
   <v type="int" >      449 </v>
   <v type="int" >      450 </v>
   <v type="int" >      451 </v>
   <v type="int" >      452 </v>
   <v type="int" >      453 </v>
   <v type="int" >      454 </v>
   <v type="int" >      455 </v>
   <v type="int" >      456 </v>
   <v type="int" >      457 </v>
   <v type="int" >      458 </v>
   <v type="int" >      459 </v>
   <v type="int" >      460 </v>
   <v type="int" >      461 </v>
   <v type="int" >      462 </v>
   <v type="int" >      463 </v>
   <v type="int" >      464 </v>
   <v type="int" >      465 </v>
   <v type="int" >      466 </v>
   <v type="int" >      467 </v>
   <v type="int" >      468 </v>
   <v type="int" >      469 </v>
   <v type="int" >      470 </v>
   <v type="int" >      471 </v>
   <v type="int" >      472 </v>
   <v type="int" >      473 </v>
   <v type="int" >      474 </v>
   <v type="int" >      475 </v>
   <v type="int" >      476 </v>
   <v type="int" >      477 </v>
   <v type="int" >      478 </v>
   <v type="int" >      479 </v>
   <v type="int" >      480 </v>
   <v type="int" >      481 </v>
   <v type="int" >      482 </v>
   <v type="int" >      483 </v>
   <v type="int" >      484 </v>
   <v type="int" >      485 </v>
   <v type="int" >      486 </v>
   <v type="int" >      487 </v>
   <v type="int" >      488 </v>
   <v type="int" >      489 </v>
   <v type="int" >      490 </v>
   <v type="int" >      491 </v>
   <v type="int" >      492 </v>
   <v type="int" >      493 </v>
   <v type="int" >      494 </v>
   <v type="int" >      495 </v>
   <v type="int" >      496 </v>
   <v type="int" >      497 </v>
   <v type="int" >      498 </v>
   <v type="int" >      499 </v>
   <v type="int" >      500 </v>
   <v type="int" >      501 </v>
   <v type="int" >      502 </v>
   <v type="int" >      503 </v>
   <v type="int" >      504 </v>
   <v type="int" >      505 </v>
   <v type="int" >      506 </v>
   <v type="int" >      507 </v>
   <v type="int" >      508 </v>
   <v type="int" >      509 </v>
   <v type="int" >      510 </v>
   <v type="int" >      511 </v>
   <v type="int" >      512 </v>
   <v type="int" >      513 </v>
   <v type="int" >      514 </v>
   <v type="int" >      515 </v>
   <v type="int" >      516 </v>
   <v type="int" >      517 </v>
   <v type="int" >      518 </v>
   <v type="int" >      519 </v>
   <v type="int" >      520 </v>
   <v type="int" >      521 </v>
   <v type="int" >      522 </v>
   <v type="int" >      523 </v>
   <v type="int" >      524 </v>
   <v type="int" >      525 </v>
   <v type="int" >      526 </v>
   <v type="int" >      527 </v>
   <v type="int" >      528 </v>
   <v type="int" >      529 </v>
   <v type="int" >      530 </v>
   <v type="int" >      531 </v>
   <v type="int" >      532 </v>
   <v type="int" >      533 </v>
   <v type="int" >      534 </v>
   <v type="int" >      535 </v>
   <v type="int" >      536 </v>
   <v type="int" >      537 </v>
   <v type="int" >      538 </v>
   <v type="int" >      539 </v>
   <v type="int" >      540 </v>
   <v type="int" >      541 </v>
   <v type="int" >      542 </v>
   <v type="int" >      543 </v>
   <v type="int" >      544 </v>
   <v type="int" >      545 </v>
   <v type="int" >      546 </v>
   <v type="int" >      547 </v>
   <v type="int" >      548 </v>
   <v type="int" >      549 </v>
   <v type="int" >      550 </v>
   <v type="int" >      551 </v>
   <v type="int" >      552 </v>
   <v type="int" >      553 </v>
   <v type="int" >      554 </v>
   <v type="int" >      555 </v>
   <v type="int" >      556 </v>
   <v type="int" >      557 </v>
   <v type="int" >      558 </v>
   <v type="int" >      559 </v>
   <v type="int" >      560 </v>
   <v type="int" >      561 </v>
   <v type="int" >      562 </v>
   <v type="int" >      563 </v>
   <v type="int" >      564 </v>
   <v type="int" >      565 </v>
   <v type="int" >      566 </v>
   <v type="int" >      567 </v>
   <v type="int" >      568 </v>
   <v type="int" >      569 </v>
   <v type="int" >      570 </v>
   <v type="int" >      571 </v>
   <v type="int" >      572 </v>
   <v type="int" >      573 </v>
   <v type="int" >      574 </v>
   <v type="int" >      575 </v>
   <v type="int" >      576 </v>
   <v type="int" >      577 </v>
   <v type="int" >      578 </v>
   <v type="int" >      579 </v>
   <v type="int" >      580 </v>
   <v type="int" >      581 </v>
   <v type="int" >      582 </v>
   <v type="int" >      583 </v>
   <v type="int" >      584 </v>
   <v type="int" >      585 </v>
   <v type="int" >      586 </v>
   <v type="int" >      587 </v>
   <v type="int" >      588 </v>
   <v type="int" >      589 </v>
   <v type="int" >      590 </v>
   <v type="int" >      591 </v>
   <v type="int" >      592 </v>
   <v type="int" >      593 </v>
   <v type="int" >      594 </v>
   <v type="int" >      595 </v>
   <v type="int" >      596 </v>
   <v type="int" >      597 </v>
   <v type="int" >      598 </v>
   <v type="int" >      599 </v>
   <v type="int" >      600 </v>
   <v type="int" >      601 </v>
   <v type="int" >      602 </v>
   <v type="int" >      603 </v>
   <v type="int" >      604 </v>
   <v type="int" >      605 </v>
   <v type="int" >      606 </v>
   <v type="int" >      607 </v>
   <v type="int" >      608 </v>
   <v type="int" >      609 </v>
   <v type="int" >      610 </v>
   <v type="int" >      611 </v>
   <v type="int" >      612 </v>
   <v type="int" >      613 </v>
   <v type="int" >      614 </v>
   <v type="int" >      615 </v>
   <v type="int" >      616 </v>
   <v type="int" >      617 </v>
   <v type="int" >      618 </v>
   <v type="int" >      619 </v>
   <v type="int" >      620 </v>
   <v type="int" >      621 </v>
   <v type="int" >      622 </v>
   <v type="int" >      623 </v>
   <v type="int" >      624 </v>
   <v type="int" >      625 </v>
   <v type="int" >      626 </v>
   <v type="int" >      627 </v>
   <v type="int" >      628 </v>
   <v type="int" >      629 </v>
   <v type="int" >      630 </v>
   <v type="int" >      631 </v>
   <v type="int" >      632 </v>
   <v type="int" >      633 </v>
   <v type="int" >      634 </v>
   <v type="int" >      635 </v>
   <v type="int" >      636 </v>
   <v type="int" >      637 </v>
   <v type="int" >      638 </v>
   <v type="int" >      639 </v>
   <v type="int" >      640 </v>
   <v type="int" >      641 </v>
   <v type="int" >      642 </v>
   <v type="int" >      643 </v>
   <v type="int" >      644 </v>
   <v type="int" >      645 </v>
   <v type="int" >      646 </v>
   <v type="int" >      647 </v>
   <v type="int" >      648 </v>
   <v type="int" >      649 </v>
   <v type="int" >      650 </v>
   <v type="int" >      651 </v>
   <v type="int" >      652 </v>
   <v type="int" >      653 </v>
   <v type="int" >      654 </v>
   <v type="int" >      655 </v>
   <v type="int" >      656 </v>
   <v type="int" >      657 </v>
   <v type="int" >      658 </v>
   <v type="int" >      659 </v>
   <v type="int" >      660 </v>
   <v type="int" >      661 </v>
   <v type="int" >      662 </v>
   <v type="int" >      663 </v>
   <v type="int" >      664 </v>
   <v type="int" >      665 </v>
   <v type="int" >      666 </v>
   <v type="int" >      667 </v>
   <v type="int" >      668 </v>
   <v type="int" >      669 </v>
   <v type="int" >      670 </v>
   <v type="int" >      671 </v>
   <v type="int" >      672 </v>
   <v type="int" >      673 </v>
   <v type="int" >      674 </v>
   <v type="int" >      675 </v>
   <v type="int" >      676 </v>
   <v type="int" >      677 </v>
   <v type="int" >      678 </v>
   <v type="int" >      679 </v>
   <v type="int" >      680 </v>
   <v type="int" >      681 </v>
   <v type="int" >      682 </v>
   <v type="int" >      683 </v>
   <v type="int" >      684 </v>
   <v type="int" >      685 </v>
   <v type="int" >      686 </v>
   <v type="int" >      687 </v>
   <v type="int" >      688 </v>
   <v type="int" >      689 </v>
   <v type="int" >      690 </v>
   <v type="int" >      691 </v>
   <v type="int" >      692 </v>
   <v type="int" >      693 </v>
   <v type="int" >      694 </v>
   <v type="int" >      695 </v>
   <v type="int" >      696 </v>
   <v type="int" >      697 </v>
   <v type="int" >      698 </v>
   <v type="int" >      699 </v>
   <v type="int" >      700 </v>
   <v type="int" >      701 </v>
   <v type="int" >      702 </v>
   <v type="int" >      703 </v>
   <v type="int" >      704 </v>
   <v type="int" >      705 </v>
   <v type="int" >      706 </v>
   <v type="int" >      707 </v>
   <v type="int" >      708 </v>
   <v type="int" >      709 </v>
   <v type="int" >      710 </v>
   <v type="int" >      711 </v>
   <v type="int" >      712 </v>
   <v type="int" >      713 </v>
   <v type="int" >      714 </v>
   <v type="int" >      715 </v>
   <v type="int" >      716 </v>
   <v type="int" >      717 </v>
   <v type="int" >      718 </v>
   <v type="int" >      719 </v>
   <v type="int" >      720 </v>
   <v type="int" >      721 </v>
   <v type="int" >      722 </v>
   <v type="int" >      723 </v>
   <v type="int" >      724 </v>
   <v type="int" >      725 </v>
   <v type="int" >      726 </v>
   <v type="int" >      727 </v>
   <v type="int" >      728 </v>
   <v type="int" >      729 </v>
   <v type="int" >      730 </v>
   <v type="int" >      731 </v>
   <v type="int" >      732 </v>
   <v type="int" >      733 </v>
   <v type="int" >      734 </v>
   <v type="int" >      735 </v>
   <v type="int" >      736 </v>
   <v type="int" >      737 </v>
   <v type="int" >      738 </v>
   <v type="int" >      739 </v>
   <v type="int" >      740 </v>
   <v type="int" >      741 </v>
   <v type="int" >      742 </v>
   <v type="int" >      743 </v>
   <v type="int" >      744 </v>
   <v type="int" >      745 </v>
   <v type="int" >      746 </v>
   <v type="int" >      747 </v>
   <v type="int" >      748 </v>
   <v type="int" >      749 </v>
   <v type="int" >      750 </v>
   <v type="int" >      751 </v>
   <v type="int" >      752 </v>
   <v type="int" >      753 </v>
   <v type="int" >      754 </v>
   <v type="int" >      755 </v>
   <v type="int" >      756 </v>
   <v type="int" >      757 </v>
   <v type="int" >      758 </v>
   <v type="int" >      759 </v>
   <v type="int" >      760 </v>
   <v type="int" >      761 </v>
   <v type="int" >      762 </v>
   <v type="int" >      763 </v>
   <v type="int" >      764 </v>
   <v type="int" >      765 </v>
   <v type="int" >      766 </v>
   <v type="int" >      767 </v>
   <v type="int" >      768 </v>
   <v type="int" >      769 </v>
   <v type="int" >      770 </v>
   <v type="int" >      771 </v>
   <v type="int" >      772 </v>
   <v type="int" >      773 </v>
   <v type="int" >      774 </v>
   <v type="int" >      775 </v>
   <v type="int" >      776 </v>
   <v type="int" >      777 </v>
   <v type="int" >      778 </v>
   <v type="int" >      779 </v>
   <v type="int" >      780 </v>
   <v type="int" >      781 </v>
   <v type="int" >      782 </v>
   <v type="int" >      783 </v>
   <v type="int" >      784 </v>
   <v type="int" >      785 </v>
   <v type="int" >      786 </v>
   <v type="int" >      787 </v>
   <v type="int" >      788 </v>
   <v type="int" >      789 </v>
   <v type="int" >      790 </v>
   <v type="int" >      791 </v>
   <v type="int" >      792 </v>
   <v type="int" >      793 </v>
   <v type="int" >      794 </v>
   <v type="int" >      795 </v>
   <v type="int" >      796 </v>
   <v type="int" >      797 </v>
   <v type="int" >      798 </v>
   <v type="int" >      799 </v>
   <v type="int" >      800 </v>
   <v type="int" >      801 </v>
   <v type="int" >      802 </v>
   <v type="int" >      803 </v>
   <v type="int" >      804 </v>
   <v type="int" >      805 </v>
   <v type="int" >      806 </v>
   <v type="int" >      807 </v>
   <v type="int" >      808 </v>
   <v type="int" >      809 </v>
   <v type="int" >      810 </v>
   <v type="int" >      811 </v>
   <v type="int" >      812 </v>
   <v type="int" >      813 </v>
   <v type="int" >      814 </v>
   <v type="int" >      815 </v>
   <v type="int" >      816 </v>
   <v type="int" >      817 </v>
   <v type="int" >      818 </v>
   <v type="int" >      819 </v>
   <v type="int" >      820 </v>
   <v type="int" >      821 </v>
   <v type="int" >      822 </v>
   <v type="int" >      823 </v>
   <v type="int" >      824 </v>
   <v type="int" >      825 </v>
   <v type="int" >      826 </v>
   <v type="int" >      827 </v>
   <v type="int" >      828 </v>
   <v type="int" >      829 </v>
   <v type="int" >      830 </v>
   <v type="int" >      831 </v>
   <v type="int" >      832 </v>
   <v type="int" >      833 </v>
   <v type="int" >      834 </v>
   <v type="int" >      835 </v>
   <v type="int" >      836 </v>
   <v type="int" >      837 </v>
   <v type="int" >      838 </v>
   <v type="int" >      839 </v>
   <v type="int" >      840 </v>
   <v type="int" >      841 </v>
   <v type="int" >      842 </v>
   <v type="int" >      843 </v>
   <v type="int" >      844 </v>
   <v type="int" >      845 </v>
   <v type="int" >      846 </v>
   <v type="int" >      847 </v>
   <v type="int" >      848 </v>
   <v type="int" >      849 </v>
   <v type="int" >      850 </v>
   <v type="int" >      851 </v>
   <v type="int" >      852 </v>
   <v type="int" >      853 </v>
   <v type="int" >      854 </v>
   <v type="int" >      855 </v>
   <v type="int" >      856 </v>
   <v type="int" >      857 </v>
   <v type="int" >      858 </v>
   <v type="int" >      859 </v>
   <v type="int" >      860 </v>
   <v type="int" >      861 </v>
   <v type="int" >      862 </v>
   <v type="int" >      863 </v>
   <v type="int" >      864 </v>
   <v type="int" >      865 </v>
   <v type="int" >      866 </v>
   <v type="int" >      867 </v>
   <v type="int" >      868 </v>
   <v type="int" >      869 </v>
   <v type="int" >      870 </v>
   <v type="int" >      871 </v>
   <v type="int" >      872 </v>
   <v type="int" >      873 </v>
   <v type="int" >      874 </v>
   <v type="int" >      875 </v>
   <v type="int" >      876 </v>
   <v type="int" >      877 </v>
   <v type="int" >      878 </v>
   <v type="int" >      879 </v>
   <v type="int" >      880 </v>
   <v type="int" >      881 </v>
   <v type="int" >      882 </v>
   <v type="int" >      883 </v>
   <v type="int" >      884 </v>
   <v type="int" >      885 </v>
   <v type="int" >      886 </v>
   <v type="int" >      887 </v>
   <v type="int" >      888 </v>
   <v type="int" >      889 </v>
   <v type="int" >      890 </v>
   <v type="int" >      891 </v>
   <v type="int" >      892 </v>
   <v type="int" >      893 </v>
   <v type="int" >      894 </v>
   <v type="int" >      895 </v>
   <v type="int" >      896 </v>
   <v type="int" >      897 </v>
   <v type="int" >      898 </v>
   <v type="int" >      899 </v>
   <v type="int" >      900 </v>
   <v type="int" >      901 </v>
   <v type="int" >      902 </v>
   <v type="int" >      903 </v>
   <v type="int" >      904 </v>
   <v type="int" >      905 </v>
   <v type="int" >      906 </v>
   <v type="int" >      907 </v>
   <v type="int" >      908 </v>
   <v type="int" >      909 </v>
   <v type="int" >      910 </v>
   <v type="int" >      911 </v>
   <v type="int" >      912 </v>
   <v type="int" >      913 </v>
   <v type="int" >      914 </v>
   <v type="int" >      915 </v>
   <v type="int" >      916 </v>
   <v type="int" >      917 </v>
   <v type="int" >      918 </v>
   <v type="int" >      919 </v>
   <v type="int" >      920 </v>
   <v type="int" >      921 </v>
   <v type="int" >      922 </v>
   <v type="int" >      923 </v>
   <v type="int" >      924 </v>
   <v type="int" >      925 </v>
   <v type="int" >      926 </v>
   <v type="int" >      927 </v>
   <v type="int" >      928 </v>
   <v type="int" >      929 </v>
   <v type="int" >      930 </v>
   <v type="int" >      931 </v>
   <v type="int" >      932 </v>
   <v type="int" >      933 </v>
   <v type="int" >      934 </v>
   <v type="int" >      935 </v>
   <v type="int" >      936 </v>
   <v type="int" >      937 </v>
   <v type="int" >      938 </v>
   <v type="int" >      939 </v>
   <v type="int" >      940 </v>
   <v type="int" >      941 </v>
   <v type="int" >      942 </v>
   <v type="int" >      943 </v>
   <v type="int" >      944 </v>
   <v type="int" >      945 </v>
   <v type="int" >      946 </v>
   <v type="int" >      947 </v>
   <v type="int" >      948 </v>
   <v type="int" >      949 </v>
   <v type="int" >      950 </v>
   <v type="int" >      951 </v>
   <v type="int" >      952 </v>
   <v type="int" >      953 </v>
   <v type="int" >      954 </v>
   <v type="int" >      955 </v>
   <v type="int" >      956 </v>
   <v type="int" >      957 </v>
   <v type="int" >      958 </v>
   <v type="int" >      959 </v>
   <v type="int" >      960 </v>
   <v type="int" >      961 </v>
   <v type="int" >      962 </v>
   <v type="int" >      963 </v>
   <v type="int" >      964 </v>
   <v type="int" >      965 </v>
   <v type="int" >      966 </v>
   <v type="int" >      967 </v>
   <v type="int" >      968 </v>
   <v type="int" >      969 </v>
   <v type="int" >      970 </v>
   <v type="int" >      971 </v>
   <v type="int" >      972 </v>
   <v type="int" >      973 </v>
   <v type="int" >      974 </v>
   <v type="int" >      975 </v>
   <v type="int" >      976 </v>
   <v type="int" >      977 </v>
   <v type="int" >      978 </v>
   <v type="int" >      979 </v>
   <v type="int" >      980 </v>
   <v type="int" >      981 </v>
   <v type="int" >      982 </v>
   <v type="int" >      983 </v>
   <v type="int" >      984 </v>
   <v type="int" >      985 </v>
   <v type="int" >      986 </v>
   <v type="int" >      987 </v>
   <v type="int" >      988 </v>
   <v type="int" >      989 </v>
   <v type="int" >      990 </v>
   <v type="int" >      991 </v>
   <v type="int" >      992 </v>
   <v type="int" >      993 </v>
   <v type="int" >      994 </v>
   <v type="int" >      995 </v>
   <v type="int" >      996 </v>
   <v type="int" >      997 </v>
   <v type="int" >      998 </v>
   <v type="int" >      999 </v>
   <v type="int" >     1000 </v>
   <v type="int" >     1001 </v>
   <v type="int" >     1002 </v>
   <v type="int" >     1003 </v>
   <v type="int" >     1004 </v>
   <v type="int" >     1005 </v>
   <v type="int" >     1006 </v>
   <v type="int" >     1007 </v>
   <v type="int" >     1008 </v>
   <v type="int" >     1009 </v>
   <v type="int" >     1010 </v>
   <v type="int" >     1011 </v>
   <v type="int" >     1012 </v>
   <v type="int" >     1013 </v>
   <v type="int" >     1014 </v>
   <v type="int" >     1015 </v>
   <v type="int" >     1016 </v>
   <v type="int" >     1017 </v>
   <v type="int" >     1018 </v>
   <v type="int" >     1019 </v>
   <v type="int" >     1020 </v>
   <v type="int" >     1021 </v>
   <v type="int" >     1022 </v>
   <v type="int" >     1023 </v>
   <v type="int" >     1024 </v>
   <v type="int" >     1025 </v>
   <v type="int" >     1026 </v>
   <v type="int" >     1027 </v>
   <v type="int" >     1028 </v>
   <v type="int" >     1029 </v>
   <v type="int" >     1030 </v>
   <v type="int" >     1031 </v>
   <v type="int" >     1032 </v>
   <v type="int" >     1033 </v>
   <v type="int" >     1034 </v>
   <v type="int" >     1035 </v>
   <v type="int" >     1036 </v>
   <v type="int" >     1037 </v>
   <v type="int" >     1038 </v>
   <v type="int" >     1039 </v>
   <v type="int" >     1040 </v>
   <v type="int" >     1041 </v>
   <v type="int" >     1042 </v>
   <v type="int" >     1043 </v>
   <v type="int" >     1044 </v>
   <v type="int" >     1045 </v>
   <v type="int" >     1046 </v>
   <v type="int" >     1047 </v>
   <v type="int" >     1048 </v>
   <v type="int" >     1049 </v>
   <v type="int" >     1050 </v>
   <v type="int" >     1051 </v>
   <v type="int" >     1052 </v>
   <v type="int" >     1053 </v>
   <v type="int" >     1054 </v>
   <v type="int" >     1055 </v>
   <v type="int" >     1056 </v>
   <v type="int" >     1057 </v>
   <v type="int" >     1058 </v>
   <v type="int" >     1059 </v>
   <v type="int" >     1060 </v>
   <v type="int" >     1061 </v>
   <v type="int" >     1062 </v>
   <v type="int" >     1063 </v>
   <v type="int" >     1064 </v>
   <v type="int" >     1065 </v>
   <v type="int" >     1066 </v>
   <v type="int" >     1067 </v>
   <v type="int" >     1068 </v>
   <v type="int" >     1069 </v>
   <v type="int" >     1070 </v>
   <v type="int" >     1071 </v>
   <v type="int" >     1072 </v>
   <v type="int" >     1073 </v>
   <v type="int" >     1074 </v>
   <v type="int" >     1075 </v>
   <v type="int" >     1076 </v>
   <v type="int" >     1077 </v>
   <v type="int" >     1078 </v>
   <v type="int" >     1079 </v>
   <v type="int" >     1080 </v>
   <v type="int" >     1081 </v>
   <v type="int" >     1082 </v>
   <v type="int" >     1083 </v>
   <v type="int" >     1084 </v>
   <v type="int" >     1085 </v>
   <v type="int" >     1086 </v>
   <v type="int" >     1087 </v>
   <v type="int" >     1088 </v>
   <v type="int" >     1089 </v>
   <v type="int" >     1090 </v>
   <v type="int" >     1091 </v>
   <v type="int" >     1092 </v>
   <v type="int" >     1093 </v>
   <v type="int" >     1094 </v>
   <v type="int" >     1095 </v>
   <v type="int" >     1096 </v>
   <v type="int" >     1097 </v>
   <v type="int" >     1098 </v>
   <v type="int" >     1099 </v>
   <v type="int" >     1100 </v>
   <v type="int" >     1101 </v>
   <v type="int" >     1102 </v>
   <v type="int" >     1103 </v>
   <v type="int" >     1104 </v>
   <v type="int" >     1105 </v>
   <v type="int" >     1106 </v>
   <v type="int" >     1107 </v>
   <v type="int" >     1108 </v>
   <v type="int" >     1109 </v>
   <v type="int" >     1110 </v>
   <v type="int" >     1111 </v>
   <v type="int" >     1112 </v>
   <v type="int" >     1113 </v>
   <v type="int" >     1114 </v>
   <v type="int" >     1115 </v>
   <v type="int" >     1116 </v>
   <v type="int" >     1117 </v>
   <v type="int" >     1118 </v>
   <v type="int" >     1119 </v>
   <v type="int" >     1120 </v>
   <v type="int" >     1121 </v>
   <v type="int" >     1122 </v>
   <v type="int" >     1123 </v>
   <v type="int" >     1124 </v>
   <v type="int" >     1125 </v>
   <v type="int" >     1126 </v>
   <v type="int" >     1127 </v>
   <v type="int" >     1128 </v>
   <v type="int" >     1129 </v>
   <v type="int" >     1130 </v>
   <v type="int" >     1131 </v>
   <v type="int" >     1132 </v>
   <v type="int" >     1133 </v>
   <v type="int" >     1134 </v>
   <v type="int" >     1135 </v>
   <v type="int" >     1136 </v>
   <v type="int" >     1137 </v>
   <v type="int" >     1138 </v>
   <v type="int" >     1139 </v>
   <v type="int" >     1140 </v>
   <v type="int" >     1141 </v>
   <v type="int" >     1142 </v>
   <v type="int" >     1143 </v>
   <v type="int" >     1144 </v>
   <v type="int" >     1145 </v>
   <v type="int" >     1146 </v>
   <v type="int" >     1147 </v>
   <v type="int" >     1148 </v>
   <v type="int" >     1149 </v>
  </varray>
 </primitive_cell>
 <kpoints>
  <generation param="Gamma">
   <v type="int" name="divisions">       1        1        1 </v>
   <v name="usershift">      0.00000000       0.00000000       0.00000000 </v>
   <v name="genvec1">      1.00000000       0.00000000       0.00000000 </v>
   <v name="genvec2">      0.00000000       1.00000000       0.00000000 </v>
   <v name="genvec3">      0.00000000       0.00000000       1.00000000 </v>
   <v name="shift">      0.00000000       0.00000000       0.00000000 </v>
  </generation>
  <varray name="kpointlist" >
   <v>       0.00000000       0.00000000       0.00000000 </v>
  </varray>
  <varray name="weights" >
   <v>       1.00000000 </v>
  </varray>
 </kpoints>
 <parameters>
  <separator name="general" >
   <i type="string" name="SYSTEM">Butanethiol on Ag 100 surface, 3-layer s</i>
   <i type="logical" name="LCOMPAT"> F  </i>
  </separator>
  <separator name="electronic" >
   <i type="string" name="PREC">medium</i>
   <i name="ENMAX">    400.00000000</i>
   <i name="ENAUG">    644.87300000</i>
   <i name="EDIFF">      0.00000100</i>
   <i type="int" name="IALGO">    68</i>
   <i type="int" name="IWAVPR">    10</i>
   <i type="int" name="NBANDS">  7504</i>
   <i type="int" name="NBANDSLOW">    -1</i>
   <i type="int" name="NBANDSHIGH">    -1</i>
   <i name="NELECT">  12506.00000000</i>
   <i type="int" name="TURBO">     0</i>
   <i type="int" name="IRESTART">     0</i>
   <i type="int" name="NREBOOT">     0</i>
   <i type="int" name="NMIN">     0</i>
   <i name="EREF">      0.00000000</i>
   <separator name="electronic smearing" >
    <i type="int" name="ISMEAR">     1</i>
    <i name="SIGMA">      0.10000000</i>
    <i name="KSPACING">      0.50000000</i>
    <i type="logical" name="KGAMMA"> T  </i>
    <i type="logical" name="KBLOWUP"> T  </i>
   </separator>
   <separator name="electronic projectors" >
    <i type="logical" name="LREAL"> T  </i>
    <v name="ROPT">     -0.00200000     -0.00200000     -0.00200000     -0.00200000</v>
    <i type="int" name="LMAXPAW">     1</i>
    <i type="int" name="LMAXMIX">     2</i>
    <i type="logical" name="NLSPLINE"> F  </i>
   </separator>
   <separator name="electronic startup" >
    <i type="int" name="ISTART">     0</i>
    <i type="int" name="ICHARG">     2</i>
    <i type="int" name="INIWAV">     1</i>
   </separator>
   <separator name="electronic spin" >
    <i type="int" name="ISPIN">     1</i>
    <i type="logical" name="LNONCOLLINEAR"> F  </i>
    <v name="MAGMOM">      1.00000000      1.00000000      1.00000000      1.00000000      1.00000000      1.00000000      1.00000000      1.00000000      1.00000000      1.00000000      1.00000000      1.00000000      1.00000000      1.00000000      1.00000000      1.00000000      1.00000000      1.00000000      1.00000000      1.00000000
      1.00000000      1.00000000      1.00000000      1.00000000      1.00000000      1.00000000      1.00000000      1.00000000      1.00000000      1.00000000      1.00000000      1.00000000      1.00000000      1.00000000      1.00000000      1.00000000      1.00000000      1.00000000      1.00000000      1.00000000
      1.00000000      1.00000000      1.00000000      1.00000000      1.00000000      1.00000000      1.00000000      1.00000000      1.00000000      1.00000000      1.00000000      1.00000000      1.00000000      1.00000000      1.00000000      1.00000000      1.00000000      1.00000000      1.00000000      1.00000000
      1.00000000      1.00000000      1.00000000      1.00000000      1.00000000      1.00000000      1.00000000      1.00000000      1.00000000      1.00000000      1.00000000      1.00000000      1.00000000      1.00000000      1.00000000      1.00000000      1.00000000      1.00000000      1.00000000      1.00000000
      1.00000000      1.00000000      1.00000000      1.00000000      1.00000000      1.00000000      1.00000000      1.00000000      1.00000000      1.00000000      1.00000000      1.00000000      1.00000000      1.00000000      1.00000000      1.00000000      1.00000000      1.00000000      1.00000000      1.00000000
      1.00000000      1.00000000      1.00000000      1.00000000      1.00000000      1.00000000      1.00000000      1.00000000      1.00000000      1.00000000      1.00000000      1.00000000      1.00000000      1.00000000      1.00000000      1.00000000      1.00000000      1.00000000      1.00000000      1.00000000
      1.00000000      1.00000000      1.00000000      1.00000000      1.00000000      1.00000000      1.00000000      1.00000000      1.00000000      1.00000000      1.00000000      1.00000000      1.00000000      1.00000000      1.00000000      1.00000000      1.00000000      1.00000000      1.00000000      1.00000000
      1.00000000      1.00000000      1.00000000      1.00000000      1.00000000      1.00000000      1.00000000      1.00000000      1.00000000      1.00000000      1.00000000      1.00000000      1.00000000      1.00000000      1.00000000      1.00000000      1.00000000      1.00000000      1.00000000      1.00000000
      1.00000000      1.00000000      1.00000000      1.00000000      1.00000000      1.00000000      1.00000000      1.00000000      1.00000000      1.00000000      1.00000000      1.00000000      1.00000000      1.00000000      1.00000000      1.00000000      1.00000000      1.00000000      1.00000000      1.00000000
      1.00000000      1.00000000      1.00000000      1.00000000      1.00000000      1.00000000      1.00000000      1.00000000      1.00000000      1.00000000      1.00000000      1.00000000      1.00000000      1.00000000      1.00000000      1.00000000      1.00000000      1.00000000      1.00000000      1.00000000
      1.00000000      1.00000000      1.00000000      1.00000000      1.00000000      1.00000000      1.00000000      1.00000000      1.00000000      1.00000000      1.00000000      1.00000000      1.00000000      1.00000000      1.00000000      1.00000000      1.00000000      1.00000000      1.00000000      1.00000000
      1.00000000      1.00000000      1.00000000      1.00000000      1.00000000      1.00000000      1.00000000      1.00000000      1.00000000      1.00000000      1.00000000      1.00000000      1.00000000      1.00000000      1.00000000      1.00000000      1.00000000      1.00000000      1.00000000      1.00000000
      1.00000000      1.00000000      1.00000000      1.00000000      1.00000000      1.00000000      1.00000000      1.00000000      1.00000000      1.00000000      1.00000000      1.00000000      1.00000000      1.00000000      1.00000000      1.00000000      1.00000000      1.00000000      1.00000000      1.00000000
      1.00000000      1.00000000      1.00000000      1.00000000      1.00000000      1.00000000      1.00000000      1.00000000      1.00000000      1.00000000      1.00000000      1.00000000      1.00000000      1.00000000      1.00000000      1.00000000      1.00000000      1.00000000      1.00000000      1.00000000
      1.00000000      1.00000000      1.00000000      1.00000000      1.00000000      1.00000000      1.00000000      1.00000000      1.00000000      1.00000000      1.00000000      1.00000000      1.00000000      1.00000000      1.00000000      1.00000000      1.00000000      1.00000000      1.00000000      1.00000000
      1.00000000      1.00000000      1.00000000      1.00000000      1.00000000      1.00000000      1.00000000      1.00000000      1.00000000      1.00000000      1.00000000      1.00000000      1.00000000      1.00000000      1.00000000      1.00000000      1.00000000      1.00000000      1.00000000      1.00000000
      1.00000000      1.00000000      1.00000000      1.00000000      1.00000000      1.00000000      1.00000000      1.00000000      1.00000000      1.00000000      1.00000000      1.00000000      1.00000000      1.00000000      1.00000000      1.00000000      1.00000000      1.00000000      1.00000000      1.00000000
      1.00000000      1.00000000      1.00000000      1.00000000      1.00000000      1.00000000      1.00000000      1.00000000      1.00000000      1.00000000      1.00000000      1.00000000      1.00000000      1.00000000      1.00000000      1.00000000      1.00000000      1.00000000      1.00000000      1.00000000
      1.00000000      1.00000000      1.00000000      1.00000000      1.00000000      1.00000000      1.00000000      1.00000000      1.00000000      1.00000000      1.00000000      1.00000000      1.00000000      1.00000000      1.00000000      1.00000000      1.00000000      1.00000000      1.00000000      1.00000000
      1.00000000      1.00000000      1.00000000      1.00000000      1.00000000      1.00000000      1.00000000      1.00000000      1.00000000      1.00000000      1.00000000      1.00000000      1.00000000      1.00000000      1.00000000      1.00000000      1.00000000      1.00000000      1.00000000      1.00000000
      1.00000000      1.00000000      1.00000000      1.00000000      1.00000000      1.00000000      1.00000000      1.00000000      1.00000000      1.00000000      1.00000000      1.00000000      1.00000000      1.00000000      1.00000000      1.00000000      1.00000000      1.00000000      1.00000000      1.00000000
      1.00000000      1.00000000      1.00000000      1.00000000      1.00000000      1.00000000      1.00000000      1.00000000      1.00000000      1.00000000      1.00000000      1.00000000      1.00000000      1.00000000      1.00000000      1.00000000      1.00000000      1.00000000      1.00000000      1.00000000
      1.00000000      1.00000000      1.00000000      1.00000000      1.00000000      1.00000000      1.00000000      1.00000000      1.00000000      1.00000000      1.00000000      1.00000000      1.00000000      1.00000000      1.00000000      1.00000000      1.00000000      1.00000000      1.00000000      1.00000000
      1.00000000      1.00000000      1.00000000      1.00000000      1.00000000      1.00000000      1.00000000      1.00000000      1.00000000      1.00000000      1.00000000      1.00000000      1.00000000      1.00000000      1.00000000      1.00000000      1.00000000      1.00000000      1.00000000      1.00000000
      1.00000000      1.00000000      1.00000000      1.00000000      1.00000000      1.00000000      1.00000000      1.00000000      1.00000000      1.00000000      1.00000000      1.00000000      1.00000000      1.00000000      1.00000000      1.00000000      1.00000000      1.00000000      1.00000000      1.00000000
      1.00000000      1.00000000      1.00000000      1.00000000      1.00000000      1.00000000      1.00000000      1.00000000      1.00000000      1.00000000      1.00000000      1.00000000      1.00000000      1.00000000      1.00000000      1.00000000      1.00000000      1.00000000      1.00000000      1.00000000
      1.00000000      1.00000000      1.00000000      1.00000000      1.00000000      1.00000000      1.00000000      1.00000000      1.00000000      1.00000000      1.00000000      1.00000000      1.00000000      1.00000000      1.00000000      1.00000000      1.00000000      1.00000000      1.00000000      1.00000000
      1.00000000      1.00000000      1.00000000      1.00000000      1.00000000      1.00000000      1.00000000      1.00000000      1.00000000      1.00000000      1.00000000      1.00000000      1.00000000      1.00000000      1.00000000      1.00000000      1.00000000      1.00000000      1.00000000      1.00000000
      1.00000000      1.00000000      1.00000000      1.00000000      1.00000000      1.00000000      1.00000000      1.00000000      1.00000000      1.00000000      1.00000000      1.00000000      1.00000000      1.00000000      1.00000000      1.00000000      1.00000000      1.00000000      1.00000000      1.00000000
      1.00000000      1.00000000      1.00000000      1.00000000      1.00000000      1.00000000      1.00000000      1.00000000      1.00000000      1.00000000      1.00000000      1.00000000      1.00000000      1.00000000      1.00000000      1.00000000      1.00000000      1.00000000      1.00000000      1.00000000
      1.00000000      1.00000000      1.00000000      1.00000000      1.00000000      1.00000000      1.00000000      1.00000000      1.00000000      1.00000000      1.00000000      1.00000000      1.00000000      1.00000000      1.00000000      1.00000000      1.00000000      1.00000000      1.00000000      1.00000000
      1.00000000      1.00000000      1.00000000      1.00000000      1.00000000      1.00000000      1.00000000      1.00000000      1.00000000      1.00000000      1.00000000      1.00000000      1.00000000      1.00000000      1.00000000      1.00000000      1.00000000      1.00000000      1.00000000      1.00000000
      1.00000000      1.00000000      1.00000000      1.00000000      1.00000000      1.00000000      1.00000000      1.00000000      1.00000000      1.00000000      1.00000000      1.00000000      1.00000000      1.00000000      1.00000000      1.00000000      1.00000000      1.00000000      1.00000000      1.00000000
      1.00000000      1.00000000      1.00000000      1.00000000      1.00000000      1.00000000      1.00000000      1.00000000      1.00000000      1.00000000      1.00000000      1.00000000      1.00000000      1.00000000      1.00000000      1.00000000      1.00000000      1.00000000      1.00000000      1.00000000
      1.00000000      1.00000000      1.00000000      1.00000000      1.00000000      1.00000000      1.00000000      1.00000000      1.00000000      1.00000000      1.00000000      1.00000000      1.00000000      1.00000000      1.00000000      1.00000000      1.00000000      1.00000000      1.00000000      1.00000000
      1.00000000      1.00000000      1.00000000      1.00000000      1.00000000      1.00000000      1.00000000      1.00000000      1.00000000      1.00000000      1.00000000      1.00000000      1.00000000      1.00000000      1.00000000      1.00000000      1.00000000      1.00000000      1.00000000      1.00000000
      1.00000000      1.00000000      1.00000000      1.00000000      1.00000000      1.00000000      1.00000000      1.00000000      1.00000000      1.00000000      1.00000000      1.00000000      1.00000000      1.00000000      1.00000000      1.00000000      1.00000000      1.00000000      1.00000000      1.00000000
      1.00000000      1.00000000      1.00000000      1.00000000      1.00000000      1.00000000      1.00000000      1.00000000      1.00000000      1.00000000      1.00000000      1.00000000      1.00000000      1.00000000      1.00000000      1.00000000      1.00000000      1.00000000      1.00000000      1.00000000
      1.00000000      1.00000000      1.00000000      1.00000000      1.00000000      1.00000000      1.00000000      1.00000000      1.00000000      1.00000000      1.00000000      1.00000000      1.00000000      1.00000000      1.00000000      1.00000000      1.00000000      1.00000000      1.00000000      1.00000000
      1.00000000      1.00000000      1.00000000      1.00000000      1.00000000      1.00000000      1.00000000      1.00000000      1.00000000      1.00000000      1.00000000      1.00000000      1.00000000      1.00000000      1.00000000      1.00000000      1.00000000      1.00000000      1.00000000      1.00000000
      1.00000000      1.00000000      1.00000000      1.00000000      1.00000000      1.00000000      1.00000000      1.00000000      1.00000000      1.00000000      1.00000000      1.00000000      1.00000000      1.00000000      1.00000000      1.00000000      1.00000000      1.00000000      1.00000000      1.00000000
      1.00000000      1.00000000      1.00000000      1.00000000      1.00000000      1.00000000      1.00000000      1.00000000      1.00000000      1.00000000      1.00000000      1.00000000      1.00000000      1.00000000      1.00000000      1.00000000      1.00000000      1.00000000      1.00000000      1.00000000
      1.00000000      1.00000000      1.00000000      1.00000000      1.00000000      1.00000000      1.00000000      1.00000000      1.00000000      1.00000000      1.00000000      1.00000000      1.00000000      1.00000000      1.00000000      1.00000000      1.00000000      1.00000000      1.00000000      1.00000000
      1.00000000      1.00000000      1.00000000      1.00000000      1.00000000      1.00000000      1.00000000      1.00000000      1.00000000      1.00000000      1.00000000      1.00000000      1.00000000      1.00000000      1.00000000      1.00000000      1.00000000      1.00000000      1.00000000      1.00000000
      1.00000000      1.00000000      1.00000000      1.00000000      1.00000000      1.00000000      1.00000000      1.00000000      1.00000000      1.00000000      1.00000000      1.00000000      1.00000000      1.00000000      1.00000000      1.00000000      1.00000000      1.00000000      1.00000000      1.00000000
      1.00000000      1.00000000      1.00000000      1.00000000      1.00000000      1.00000000      1.00000000      1.00000000      1.00000000      1.00000000      1.00000000      1.00000000      1.00000000      1.00000000      1.00000000      1.00000000      1.00000000      1.00000000      1.00000000      1.00000000
      1.00000000      1.00000000      1.00000000      1.00000000      1.00000000      1.00000000      1.00000000      1.00000000      1.00000000      1.00000000      1.00000000      1.00000000      1.00000000      1.00000000      1.00000000      1.00000000      1.00000000      1.00000000      1.00000000      1.00000000
      1.00000000      1.00000000      1.00000000      1.00000000      1.00000000      1.00000000      1.00000000      1.00000000      1.00000000      1.00000000      1.00000000      1.00000000      1.00000000      1.00000000      1.00000000      1.00000000      1.00000000      1.00000000      1.00000000      1.00000000
      1.00000000      1.00000000      1.00000000      1.00000000      1.00000000      1.00000000      1.00000000      1.00000000      1.00000000      1.00000000      1.00000000      1.00000000      1.00000000      1.00000000      1.00000000      1.00000000      1.00000000      1.00000000      1.00000000      1.00000000
      1.00000000      1.00000000      1.00000000      1.00000000      1.00000000      1.00000000      1.00000000      1.00000000      1.00000000      1.00000000      1.00000000      1.00000000      1.00000000      1.00000000      1.00000000      1.00000000      1.00000000      1.00000000      1.00000000      1.00000000
      1.00000000      1.00000000      1.00000000      1.00000000      1.00000000      1.00000000      1.00000000      1.00000000      1.00000000      1.00000000      1.00000000      1.00000000      1.00000000      1.00000000      1.00000000      1.00000000      1.00000000      1.00000000      1.00000000      1.00000000
      1.00000000      1.00000000      1.00000000      1.00000000      1.00000000      1.00000000      1.00000000      1.00000000      1.00000000      1.00000000      1.00000000      1.00000000      1.00000000      1.00000000      1.00000000      1.00000000      1.00000000      1.00000000      1.00000000      1.00000000
      1.00000000      1.00000000      1.00000000      1.00000000      1.00000000      1.00000000      1.00000000      1.00000000      1.00000000      1.00000000      1.00000000      1.00000000      1.00000000      1.00000000      1.00000000      1.00000000      1.00000000      1.00000000      1.00000000      1.00000000
      1.00000000      1.00000000      1.00000000      1.00000000      1.00000000      1.00000000      1.00000000      1.00000000      1.00000000      1.00000000      1.00000000      1.00000000      1.00000000      1.00000000      1.00000000      1.00000000      1.00000000      1.00000000      1.00000000      1.00000000
      1.00000000      1.00000000      1.00000000      1.00000000      1.00000000      1.00000000      1.00000000      1.00000000      1.00000000      1.00000000      1.00000000      1.00000000      1.00000000      1.00000000      1.00000000      1.00000000      1.00000000      1.00000000      1.00000000      1.00000000
      1.00000000      1.00000000      1.00000000      1.00000000      1.00000000      1.00000000      1.00000000      1.00000000      1.00000000      1.00000000      1.00000000      1.00000000      1.00000000      1.00000000      1.00000000      1.00000000      1.00000000      1.00000000      1.00000000      1.00000000
      1.00000000      1.00000000      1.00000000      1.00000000      1.00000000      1.00000000      1.00000000      1.00000000      1.00000000      1.00000000      1.00000000      1.00000000      1.00000000      1.00000000      1.00000000      1.00000000      1.00000000      1.00000000      1.00000000      1.00000000
      1.00000000      1.00000000      1.00000000      1.00000000      1.00000000      1.00000000      1.00000000      1.00000000      1.00000000</v>
    <i name="NUPDOWN">     -1.00000000</i>
    <i type="logical" name="LSORBIT"> F  </i>
    <v name="SAXIS">      0.00000000      0.00000000      1.00000000</v>
    <i type="logical" name="LSPIRAL"> F  </i>
    <v name="QSPIRAL">      0.00000000      0.00000000      0.00000000</v>
    <i type="logical" name="LZEROZ"> F  </i>
   </separator>
   <separator name="electronic exchange-correlation" >
    <i type="logical" name="LASPH"> F  </i>
   </separator>
   <separator name="electronic convergence" >
    <i type="int" name="NELM">    60</i>
    <i type="int" name="NELMDL">    -5</i>
    <i type="int" name="NELMIN">     4</i>
    <i name="ENINI">    400.00000000</i>
    <separator name="electronic convergence detail" >
     <i type="logical" name="LDIAG"> T  </i>
     <i type="logical" name="LSUBROT"> F  </i>
     <i type="logical" name="LROBUST"> F  </i>
     <i type="int" name="ISEARCH">     0</i>
     <i name="WEIMIN">      0.00000000</i>
     <i name="EBREAK">      0.00000000</i>
     <i name="DEPER">      0.30000000</i>
     <i type="int" name="NRMM">     4</i>
     <i name="TIME">      0.40000000</i>
    </separator>
   </separator>
   <separator name="electronic mixer" >
    <i name="AMIX">      0.40000000</i>
    <i name="BMIX">      1.00000000</i>
    <i name="AMIN">      0.10000000</i>
    <i name="AMIX_MAG">      1.60000000</i>
    <i name="BMIX_MAG">      1.00000000</i>
    <separator name="electronic mixer details" >
     <i type="int" name="IMIX">     4</i>
     <i type="logical" name="MIXFIRST"> F  </i>
     <i type="int" name="MAXMIX">   -45</i>
     <i name="WC">    100.00000000</i>
     <i type="int" name="INIMIX">     1</i>
     <i type="int" name="MIXPRE">     1</i>
     <i type="int" name="MREMOVE">     5</i>
    </separator>
   </separator>
   <separator name="electronic dipolcorrection" >
    <i type="logical" name="LDIPOL"> F  </i>
    <i type="logical" name="LMONO"> F  </i>
    <i type="int" name="IDIPOL">     0</i>
    <i name="EPSILON">      1.00000000</i>
    <v name="DIPOL">   -100.00000000   -100.00000000   -100.00000000</v>
    <i name="EFIELD">      0.00000000</i>
    <i type="logical" name="LVACPOTAV"> F  </i>
   </separator>
  </separator>
  <separator name="grids" >
   <i type="int" name="NGX">   168</i>
   <i type="int" name="NGY">   168</i>
   <i type="int" name="NGZ">   250</i>
   <i type="int" name="NGXF">   288</i>
   <i type="int" name="NGYF">   288</i>
   <i type="int" name="NGZF">   420</i>
   <i type="logical" name="ADDGRID"> F  </i>
  </separator>
  <separator name="ionic" >
   <i type="int" name="NSW">     0</i>
   <i type="int" name="IBRION">    -1</i>
   <i type="int" name="MDALGO">     0</i>
   <i type="int" name="ISIF">     2</i>
   <i name="PSTRESS">      0.00000000</i>
   <i name="EDIFFG">      0.00001000</i>
   <i type="int" name="NFREE">     0</i>
   <i name="POTIM">      0.40000000</i>
   <i name="SMASS">     -3.00000000</i>
   <i name="SCALEE">      1.00000000</i>
  </separator>
  <separator name="ionic md" >
   <i name="TEBEG">      0.00010000</i>
   <i name="TEEND">      0.00010000</i>
   <i type="int" name="NBLOCK">     1</i>
   <i type="int" name="KBLOCK">     1</i>
   <i type="int" name="NPACO">   256</i>
   <i name="APACO">     10.00000000</i>
  </separator>
  <separator name="symmetry" >
   <i type="int" name="ISYM">     2</i>
   <i name="SYMPREC">      0.00001000</i>
  </separator>
  <separator name="dos" >
   <i type="int" name="LORBIT">     0</i>
   <v name="RWIGS">     -1.00000000     -1.00000000     -1.00000000     -1.00000000</v>
   <i type="int" name="NEDOS">   301</i>
   <i name="EMIN">     10.00000000</i>
   <i name="EMAX">    -10.00000000</i>
   <i name="EFERMI">      0.00000000</i>
  </separator>
  <separator name="writing" >
   <i type="int" name="NWRITE">     3</i>
   <i type="logical" name="LWAVE"> T  </i>
   <i type="logical" name="LDOWNSAMPLE"> F  </i>
   <i type="logical" name="LCHARG"> T  </i>
   <i type="logical" name="LPARD"> F  </i>
   <i type="logical" name="LVTOT"> F  </i>
   <i type="logical" name="LVHAR"> F  </i>
   <i type="logical" name="LELF"> F  </i>
   <i type="logical" name="LOPTICS"> F  </i>
   <v name="STM">      0.00000000      0.00000000      0.00000000      0.00000000      0.00000000      0.00000000      0.00000000</v>
  </separator>
  <separator name="performance" >
   <i type="int" name="NPAR">     4</i>
   <i type="int" name="NSIM">     4</i>
   <i type="int" name="NBLK">    -1</i>
   <i type="logical" name="LPLANE"> T  </i>
   <i type="logical" name="LSCALAPACK"> T  </i>
   <i type="logical" name="LSCAAWARE"> F  </i>
   <i type="logical" name="LSCALU"> F  </i>
   <i type="logical" name="LASYNC"> F  </i>
   <i type="logical" name="LORBITALREAL"> F  </i>
  </separator>
  <separator name="miscellaneous" >
   <i type="int" name="IDIOT">     3</i>
   <i type="int" name="PHON_NSTRUCT">    -1</i>
   <i type="logical" name="LMUSIC"> F  </i>
   <v name="POMASS">    107.86800000     12.01100000      1.00000000     32.06600000</v>
   <v name="DARWINR">      0.00000000      0.00000000      0.00000000      0.00000000</v>
   <v name="DARWINV">      1.00000000      1.00000000      1.00000000      1.00000000</v>
   <i type="logical" name="LCORR"> T  </i>
  </separator>
  <i type="logical" name="GGA_COMPAT"> T  </i>
  <i type="logical" name="LBERRY"> F  </i>
  <i type="int" name="ICORELEVEL">     0</i>
  <i type="logical" name="LDAU"> F  </i>
  <i type="int" name="I_CONSTRAINED_M">     0</i>
  <separator name="electronic exchange-correlation" >
   <i type="string" name="GGA    ">PE</i>
   <i type="string" name="XC_C">1</i>
   <i type="int" name="VOSKOWN">     0</i>
   <i type="logical" name="LHFCALC"> F  </i>
   <i type="string" name="PRECFOCK"></i>
   <i type="logical" name="LSYMGRAD"> F  </i>
   <i type="logical" name="LHFONE"> F  </i>
   <i type="logical" name="LRHFCALC"> F  </i>
   <i type="logical" name="LTHOMAS"> F  </i>
   <i type="logical" name="LMODELHF"> F  </i>
   <i type="logical" name="LFOCKACE"> F  </i>
   <i name="ENCUT4O">     -1.00000000</i>
   <i type="int" name="EXXOEP">     0</i>
   <i type="int" name="FOURORBIT">     0</i>
   <i name="AEXX">      0.00000000</i>
   <i name="HFALPHA">      0.00000000</i>
   <i name="MCALPHA">      0.00000000</i>
   <i name="ALDAX">      1.00000000</i>
   <i name="AGGAX">      1.00000000</i>
   <i name="AMGGAX">      1.00000000</i>
   <i name="ALDAC">      1.00000000</i>
   <i name="AGGAC">      1.00000000</i>
   <i name="AMGGAC">      1.00000000</i>
   <i type="int" name="NKREDX">     1</i>
   <i type="int" name="NKREDY">     1</i>
   <i type="int" name="NKREDZ">     1</i>
   <i type="logical" name="SHIFTRED"> F  </i>
   <i type="logical" name="ODDONLY"> F  </i>
   <i type="logical" name="EVENONLY"> F  </i>
   <i type="int" name="LMAXFOCK">     0</i>
   <i type="int" name="NMAXFOCKAE">     0</i>
   <i type="logical" name="LFOCKAEDFT"> F  </i>
   <i name="HFSCREEN">      0.00000000</i>
   <i name="HFSCREENC">      0.00000000</i>
   <i type="int" name="NBANDSGWLOW">     0</i>
  </separator>
  <separator name="vdW DFT" >
   <i type="logical" name="LUSE_VDW"> F  </i>
   <i type="int" name="IVDW_NL">    -1</i>
   <i type="logical" name="LSPIN_VDW"> F  </i>
   <i name="ZAB_VDW">     -0.84910000</i>
   <i name="GAMMA_VDW">      1.39626340</i>
   <i name="ALPHA_VDW">      0.00000000</i>
   <i name="PARAM1">      0.12340000</i>
   <i name="PARAM2">      1.00000000</i>
   <i name="BPARAM">      6.30000000</i>
   <i name="CPARAM">      0.00930000</i>
  </separator>
  <separator name="model GW" >
   <i type="int" name="MODEL_GW">     0</i>
   <i name="MODEL_EPS0">     30.05861358</i>
   <i name="MODEL_ALPHA">      1.00000000</i>
  </separator>
  <separator name="linear response parameters" >
   <i type="logical" name="LEPSILON"> F  </i>
   <i type="logical" name="LRPA"> F  </i>
   <i type="logical" name="LNABLA"> F  </i>
   <i type="logical" name="LVEL"> F  </i>
   <i name="CSHIFT">      0.10000000</i>
   <i name="OMEGAMAX">     -1.00000000</i>
   <i name="DEG_THRESHOLD">      0.00200000</i>
   <i name="RTIME">     -0.10000000</i>
   <i name="WPLASMAI">      0.00000000</i>
   <v name="DFIELD">      0.00000000      0.00000000      0.00000000</v>
   <v name="WPLASMA">      0.00000000      0.00000000      0.00000000      0.00000000      0.00000000      0.00000000      0.00000000      0.00000000      0.00000000</v>
  </separator>
  <separator name="orbital magnetization" >
   <i type="logical" name="NUCIND"> F  </i>
   <v name="MAGPOS">      0.00000000      0.00000000      0.00000000</v>
   <i type="logical" name="LNICSALL"> T  </i>
   <i type="logical" name="ORBITALMAG"> F  </i>
   <i type="logical" name="LMAGBLOCH"> F  </i>
   <i type="logical" name="LCHIMAG"> F  </i>
   <i type="logical" name="LGAUGE"> T  </i>
   <i type="int" name="MAGATOM">     0</i>
   <v name="MAGDIPOL">      0.00000000      0.00000000      0.00000000</v>
   <v name="AVECCONST">      0.00000000      0.00000000      0.00000000</v>
  </separator>
  <separator name="response functions" >
   <i type="logical" name="LALL_IN_ONE"> F  </i>
   <i type="int" name="IALL_IN_ONE">    -1</i>
   <i type="int" name="NBANDS_WAVE">    -1</i>
   <i type="logical" name="LFINITE_TEMPERATURE"> F  </i>
   <i type="logical" name="LADDER"> F  </i>
   <i type="logical" name="LRPAFORCE"> F  </i>
   <i type="logical" name="LFXC"> F  </i>
   <i type="logical" name="LHARTREE"> T  </i>
   <i type="int" name="IBSE">     2</i>
   <v type="int" name="KPOINT">    -1     0     0     0</v>
   <i type="logical" name="LTCTC"> F  </i>
   <i type="logical" name="LTCTE"> F  </i>
   <i type="logical" name="LTETE"> F  </i>
   <i type="logical" name="LTRIPLET"> F  </i>
   <i type="logical" name="LFXCEPS"> F  </i>
   <i type="logical" name="LFXHEG"> F  </i>
   <i type="int" name="NATURALO">     2</i>
   <i type="logical" name="LHOLEGF"> F  </i>
   <i type="logical" name="L2ORDER"> F  </i>
   <i type="logical" name="LDMP1"> F  </i>
   <i type="logical" name="LMP2LT"> F  </i>
   <i type="logical" name="LSMP2LT"> F  </i>
   <i type="logical" name="LGWLF"> F  </i>
   <i name="ENCUTGW">     -1.60000002</i>
   <i name="ENCUTGWSOFT">     -1.60000002</i>
   <i name="ENCUTLF">     -1.00000000</i>
   <i type="logical" name="ESF_SPLINES"> F  </i>
   <i name="ESF_CONV">      0.01000000</i>
   <i type="int" name="ESF_NINTER">    15</i>
   <i type="int" name="LMAXMP2">    -1</i>
   <i name="SCISSOR">      0.00000000</i>
   <i type="int" name="NOMEGA">     0</i>
   <i type="int" name="NOMEGAR">     0</i>
   <i type="int" name="NBANDSGW">    -1</i>
   <i type="int" name="NBANDSO">    -1</i>
   <i type="int" name="NBANDSV">    -1</i>
   <i type="int" name="NELMGW">     1</i>
   <i type="int" name="NELMHF">     1</i>
   <i type="int" name="DIM">     3</i>
   <i type="int" name="IESPILON">     4</i>
   <i type="int" name="ANTIRES">     0</i>
   <i name="OMEGAMAX">    -30.00000000</i>
   <i name="OMEGAMIN">    -30.00000000</i>
   <i name="OMEGATL">   -200.00000000</i>
   <i type="int" name="OMEGAGRID">     0</i>
   <i name="CSHIFT">     -0.10000000</i>
   <i type="logical" name="LSELFENERGY"> F  </i>
   <i type="logical" name="LSPECTRAL"> F  </i>
   <i type="logical" name="LSPECTRALGW"> F  </i>
   <i type="logical" name="LSINGLES"> F  </i>
   <i type="logical" name="LFERMIGW"> F  </i>
   <i type="logical" name="ODDONLYGW"> F  </i>
   <i type="logical" name="EVENONLYGW"> F  </i>
   <i type="int" name="NKREDLFX">     1</i>
   <i type="int" name="NKREDLFY">     1</i>
   <i type="int" name="NKREDLFZ">     1</i>
   <i type="int" name="MAXMEM">  2800</i>
   <i type="int" name="TELESCOPE">     0</i>
   <i type="int" name="NTAUPAR">    -1</i>
   <i type="int" name="NOMEGAPAR">    -1</i>
   <i name="DAMP_NEWTON">      0.80000001</i>
   <i name="LAMBDA">      1.00000000</i>
  </separator>
  <separator name="External order field" >
   <i name="OFIELD_KAPPA">      0.00000000</i>
   <v name="OFIELD_K">      0.00000000      0.00000000      0.00000000</v>
   <i name="OFIELD_Q6_NEAR">      0.00000000</i>
   <i name="OFIELD_Q6_FAR">      0.00000000</i>
   <i name="OFIELD_A">      0.00000000</i>
  </separator>
  <separator name="optional k-points parameters" >
   <i type="int" name="KPOINTS_OPT_MODE">     1</i>
   <i type="logical" name="LKPOINTS_OPT"> F  </i>
  </separator>
 </parameters>
 <atominfo>
  <atoms>    1149 </atoms>
  <types>       4 </types>
  <array name="atoms" >
   <dimension dim="1">ion</dimension>
   <field type="string">element</field>
   <field type="int">atomtype</field>
   <set>
    <rc><c>Ag</c><c>   1</c></rc>
    <rc><c>Ag</c><c>   1</c></rc>
    <rc><c>Ag</c><c>   1</c></rc>
    <rc><c>Ag</c><c>   1</c></rc>
    <rc><c>Ag</c><c>   1</c></rc>
    <rc><c>Ag</c><c>   1</c></rc>
    <rc><c>Ag</c><c>   1</c></rc>
    <rc><c>Ag</c><c>   1</c></rc>
    <rc><c>Ag</c><c>   1</c></rc>
    <rc><c>Ag</c><c>   1</c></rc>
    <rc><c>Ag</c><c>   1</c></rc>
    <rc><c>Ag</c><c>   1</c></rc>
    <rc><c>Ag</c><c>   1</c></rc>
    <rc><c>Ag</c><c>   1</c></rc>
    <rc><c>Ag</c><c>   1</c></rc>
    <rc><c>Ag</c><c>   1</c></rc>
    <rc><c>Ag</c><c>   1</c></rc>
    <rc><c>Ag</c><c>   1</c></rc>
    <rc><c>Ag</c><c>   1</c></rc>
    <rc><c>Ag</c><c>   1</c></rc>
    <rc><c>Ag</c><c>   1</c></rc>
    <rc><c>Ag</c><c>   1</c></rc>
    <rc><c>Ag</c><c>   1</c></rc>
    <rc><c>Ag</c><c>   1</c></rc>
    <rc><c>Ag</c><c>   1</c></rc>
    <rc><c>Ag</c><c>   1</c></rc>
    <rc><c>Ag</c><c>   1</c></rc>
    <rc><c>Ag</c><c>   1</c></rc>
    <rc><c>Ag</c><c>   1</c></rc>
    <rc><c>Ag</c><c>   1</c></rc>
    <rc><c>Ag</c><c>   1</c></rc>
    <rc><c>Ag</c><c>   1</c></rc>
    <rc><c>Ag</c><c>   1</c></rc>
    <rc><c>Ag</c><c>   1</c></rc>
    <rc><c>Ag</c><c>   1</c></rc>
    <rc><c>Ag</c><c>   1</c></rc>
    <rc><c>Ag</c><c>   1</c></rc>
    <rc><c>Ag</c><c>   1</c></rc>
    <rc><c>Ag</c><c>   1</c></rc>
    <rc><c>Ag</c><c>   1</c></rc>
    <rc><c>Ag</c><c>   1</c></rc>
    <rc><c>Ag</c><c>   1</c></rc>
    <rc><c>Ag</c><c>   1</c></rc>
    <rc><c>Ag</c><c>   1</c></rc>
    <rc><c>Ag</c><c>   1</c></rc>
    <rc><c>Ag</c><c>   1</c></rc>
    <rc><c>Ag</c><c>   1</c></rc>
    <rc><c>Ag</c><c>   1</c></rc>
    <rc><c>Ag</c><c>   1</c></rc>
    <rc><c>Ag</c><c>   1</c></rc>
    <rc><c>Ag</c><c>   1</c></rc>
    <rc><c>Ag</c><c>   1</c></rc>
    <rc><c>Ag</c><c>   1</c></rc>
    <rc><c>Ag</c><c>   1</c></rc>
    <rc><c>Ag</c><c>   1</c></rc>
    <rc><c>Ag</c><c>   1</c></rc>
    <rc><c>Ag</c><c>   1</c></rc>
    <rc><c>Ag</c><c>   1</c></rc>
    <rc><c>Ag</c><c>   1</c></rc>
    <rc><c>Ag</c><c>   1</c></rc>
    <rc><c>Ag</c><c>   1</c></rc>
    <rc><c>Ag</c><c>   1</c></rc>
    <rc><c>Ag</c><c>   1</c></rc>
    <rc><c>Ag</c><c>   1</c></rc>
    <rc><c>Ag</c><c>   1</c></rc>
    <rc><c>Ag</c><c>   1</c></rc>
    <rc><c>Ag</c><c>   1</c></rc>
    <rc><c>Ag</c><c>   1</c></rc>
    <rc><c>Ag</c><c>   1</c></rc>
    <rc><c>Ag</c><c>   1</c></rc>
    <rc><c>Ag</c><c>   1</c></rc>
    <rc><c>Ag</c><c>   1</c></rc>
    <rc><c>Ag</c><c>   1</c></rc>
    <rc><c>Ag</c><c>   1</c></rc>
    <rc><c>Ag</c><c>   1</c></rc>
    <rc><c>Ag</c><c>   1</c></rc>
    <rc><c>Ag</c><c>   1</c></rc>
    <rc><c>Ag</c><c>   1</c></rc>
    <rc><c>Ag</c><c>   1</c></rc>
    <rc><c>Ag</c><c>   1</c></rc>
    <rc><c>Ag</c><c>   1</c></rc>
    <rc><c>Ag</c><c>   1</c></rc>
    <rc><c>Ag</c><c>   1</c></rc>
    <rc><c>Ag</c><c>   1</c></rc>
    <rc><c>Ag</c><c>   1</c></rc>
    <rc><c>Ag</c><c>   1</c></rc>
    <rc><c>Ag</c><c>   1</c></rc>
    <rc><c>Ag</c><c>   1</c></rc>
    <rc><c>Ag</c><c>   1</c></rc>
    <rc><c>Ag</c><c>   1</c></rc>
    <rc><c>Ag</c><c>   1</c></rc>
    <rc><c>Ag</c><c>   1</c></rc>
    <rc><c>Ag</c><c>   1</c></rc>
    <rc><c>Ag</c><c>   1</c></rc>
    <rc><c>Ag</c><c>   1</c></rc>
    <rc><c>Ag</c><c>   1</c></rc>
    <rc><c>Ag</c><c>   1</c></rc>
    <rc><c>Ag</c><c>   1</c></rc>
    <rc><c>Ag</c><c>   1</c></rc>
    <rc><c>Ag</c><c>   1</c></rc>
    <rc><c>Ag</c><c>   1</c></rc>
    <rc><c>Ag</c><c>   1</c></rc>
    <rc><c>Ag</c><c>   1</c></rc>
    <rc><c>Ag</c><c>   1</c></rc>
    <rc><c>Ag</c><c>   1</c></rc>
    <rc><c>Ag</c><c>   1</c></rc>
    <rc><c>Ag</c><c>   1</c></rc>
    <rc><c>Ag</c><c>   1</c></rc>
    <rc><c>Ag</c><c>   1</c></rc>
    <rc><c>Ag</c><c>   1</c></rc>
    <rc><c>Ag</c><c>   1</c></rc>
    <rc><c>Ag</c><c>   1</c></rc>
    <rc><c>Ag</c><c>   1</c></rc>
    <rc><c>Ag</c><c>   1</c></rc>
    <rc><c>Ag</c><c>   1</c></rc>
    <rc><c>Ag</c><c>   1</c></rc>
    <rc><c>Ag</c><c>   1</c></rc>
    <rc><c>Ag</c><c>   1</c></rc>
    <rc><c>Ag</c><c>   1</c></rc>
    <rc><c>Ag</c><c>   1</c></rc>
    <rc><c>Ag</c><c>   1</c></rc>
    <rc><c>Ag</c><c>   1</c></rc>
    <rc><c>Ag</c><c>   1</c></rc>
    <rc><c>Ag</c><c>   1</c></rc>
    <rc><c>Ag</c><c>   1</c></rc>
    <rc><c>Ag</c><c>   1</c></rc>
    <rc><c>Ag</c><c>   1</c></rc>
    <rc><c>Ag</c><c>   1</c></rc>
    <rc><c>Ag</c><c>   1</c></rc>
    <rc><c>Ag</c><c>   1</c></rc>
    <rc><c>Ag</c><c>   1</c></rc>
    <rc><c>Ag</c><c>   1</c></rc>
    <rc><c>Ag</c><c>   1</c></rc>
    <rc><c>Ag</c><c>   1</c></rc>
    <rc><c>Ag</c><c>   1</c></rc>
    <rc><c>Ag</c><c>   1</c></rc>
    <rc><c>Ag</c><c>   1</c></rc>
    <rc><c>Ag</c><c>   1</c></rc>
    <rc><c>Ag</c><c>   1</c></rc>
    <rc><c>Ag</c><c>   1</c></rc>
    <rc><c>Ag</c><c>   1</c></rc>
    <rc><c>Ag</c><c>   1</c></rc>
    <rc><c>Ag</c><c>   1</c></rc>
    <rc><c>Ag</c><c>   1</c></rc>
    <rc><c>Ag</c><c>   1</c></rc>
    <rc><c>Ag</c><c>   1</c></rc>
    <rc><c>Ag</c><c>   1</c></rc>
    <rc><c>Ag</c><c>   1</c></rc>
    <rc><c>Ag</c><c>   1</c></rc>
    <rc><c>Ag</c><c>   1</c></rc>
    <rc><c>Ag</c><c>   1</c></rc>
    <rc><c>Ag</c><c>   1</c></rc>
    <rc><c>Ag</c><c>   1</c></rc>
    <rc><c>Ag</c><c>   1</c></rc>
    <rc><c>Ag</c><c>   1</c></rc>
    <rc><c>Ag</c><c>   1</c></rc>
    <rc><c>Ag</c><c>   1</c></rc>
    <rc><c>Ag</c><c>   1</c></rc>
    <rc><c>Ag</c><c>   1</c></rc>
    <rc><c>Ag</c><c>   1</c></rc>
    <rc><c>Ag</c><c>   1</c></rc>
    <rc><c>Ag</c><c>   1</c></rc>
    <rc><c>Ag</c><c>   1</c></rc>
    <rc><c>Ag</c><c>   1</c></rc>
    <rc><c>Ag</c><c>   1</c></rc>
    <rc><c>Ag</c><c>   1</c></rc>
    <rc><c>Ag</c><c>   1</c></rc>
    <rc><c>Ag</c><c>   1</c></rc>
    <rc><c>Ag</c><c>   1</c></rc>
    <rc><c>Ag</c><c>   1</c></rc>
    <rc><c>Ag</c><c>   1</c></rc>
    <rc><c>Ag</c><c>   1</c></rc>
    <rc><c>Ag</c><c>   1</c></rc>
    <rc><c>Ag</c><c>   1</c></rc>
    <rc><c>Ag</c><c>   1</c></rc>
    <rc><c>Ag</c><c>   1</c></rc>
    <rc><c>Ag</c><c>   1</c></rc>
    <rc><c>Ag</c><c>   1</c></rc>
    <rc><c>Ag</c><c>   1</c></rc>
    <rc><c>Ag</c><c>   1</c></rc>
    <rc><c>Ag</c><c>   1</c></rc>
    <rc><c>Ag</c><c>   1</c></rc>
    <rc><c>Ag</c><c>   1</c></rc>
    <rc><c>Ag</c><c>   1</c></rc>
    <rc><c>Ag</c><c>   1</c></rc>
    <rc><c>Ag</c><c>   1</c></rc>
    <rc><c>Ag</c><c>   1</c></rc>
    <rc><c>Ag</c><c>   1</c></rc>
    <rc><c>Ag</c><c>   1</c></rc>
    <rc><c>Ag</c><c>   1</c></rc>
    <rc><c>Ag</c><c>   1</c></rc>
    <rc><c>Ag</c><c>   1</c></rc>
    <rc><c>Ag</c><c>   1</c></rc>
    <rc><c>Ag</c><c>   1</c></rc>
    <rc><c>Ag</c><c>   1</c></rc>
    <rc><c>Ag</c><c>   1</c></rc>
    <rc><c>Ag</c><c>   1</c></rc>
    <rc><c>Ag</c><c>   1</c></rc>
    <rc><c>Ag</c><c>   1</c></rc>
    <rc><c>Ag</c><c>   1</c></rc>
    <rc><c>Ag</c><c>   1</c></rc>
    <rc><c>Ag</c><c>   1</c></rc>
    <rc><c>Ag</c><c>   1</c></rc>
    <rc><c>Ag</c><c>   1</c></rc>
    <rc><c>Ag</c><c>   1</c></rc>
    <rc><c>Ag</c><c>   1</c></rc>
    <rc><c>Ag</c><c>   1</c></rc>
    <rc><c>Ag</c><c>   1</c></rc>
    <rc><c>Ag</c><c>   1</c></rc>
    <rc><c>Ag</c><c>   1</c></rc>
    <rc><c>Ag</c><c>   1</c></rc>
    <rc><c>Ag</c><c>   1</c></rc>
    <rc><c>Ag</c><c>   1</c></rc>
    <rc><c>Ag</c><c>   1</c></rc>
    <rc><c>Ag</c><c>   1</c></rc>
    <rc><c>Ag</c><c>   1</c></rc>
    <rc><c>Ag</c><c>   1</c></rc>
    <rc><c>Ag</c><c>   1</c></rc>
    <rc><c>Ag</c><c>   1</c></rc>
    <rc><c>Ag</c><c>   1</c></rc>
    <rc><c>Ag</c><c>   1</c></rc>
    <rc><c>Ag</c><c>   1</c></rc>
    <rc><c>Ag</c><c>   1</c></rc>
    <rc><c>Ag</c><c>   1</c></rc>
    <rc><c>Ag</c><c>   1</c></rc>
    <rc><c>Ag</c><c>   1</c></rc>
    <rc><c>Ag</c><c>   1</c></rc>
    <rc><c>Ag</c><c>   1</c></rc>
    <rc><c>Ag</c><c>   1</c></rc>
    <rc><c>Ag</c><c>   1</c></rc>
    <rc><c>Ag</c><c>   1</c></rc>
    <rc><c>Ag</c><c>   1</c></rc>
    <rc><c>Ag</c><c>   1</c></rc>
    <rc><c>Ag</c><c>   1</c></rc>
    <rc><c>Ag</c><c>   1</c></rc>
    <rc><c>Ag</c><c>   1</c></rc>
    <rc><c>Ag</c><c>   1</c></rc>
    <rc><c>Ag</c><c>   1</c></rc>
    <rc><c>Ag</c><c>   1</c></rc>
    <rc><c>Ag</c><c>   1</c></rc>
    <rc><c>Ag</c><c>   1</c></rc>
    <rc><c>Ag</c><c>   1</c></rc>
    <rc><c>Ag</c><c>   1</c></rc>
    <rc><c>Ag</c><c>   1</c></rc>
    <rc><c>Ag</c><c>   1</c></rc>
    <rc><c>Ag</c><c>   1</c></rc>
    <rc><c>Ag</c><c>   1</c></rc>
    <rc><c>Ag</c><c>   1</c></rc>
    <rc><c>Ag</c><c>   1</c></rc>
    <rc><c>Ag</c><c>   1</c></rc>
    <rc><c>Ag</c><c>   1</c></rc>
    <rc><c>Ag</c><c>   1</c></rc>
    <rc><c>Ag</c><c>   1</c></rc>
    <rc><c>Ag</c><c>   1</c></rc>
    <rc><c>Ag</c><c>   1</c></rc>
    <rc><c>Ag</c><c>   1</c></rc>
    <rc><c>Ag</c><c>   1</c></rc>
    <rc><c>Ag</c><c>   1</c></rc>
    <rc><c>Ag</c><c>   1</c></rc>
    <rc><c>Ag</c><c>   1</c></rc>
    <rc><c>Ag</c><c>   1</c></rc>
    <rc><c>Ag</c><c>   1</c></rc>
    <rc><c>Ag</c><c>   1</c></rc>
    <rc><c>Ag</c><c>   1</c></rc>
    <rc><c>Ag</c><c>   1</c></rc>
    <rc><c>Ag</c><c>   1</c></rc>
    <rc><c>Ag</c><c>   1</c></rc>
    <rc><c>Ag</c><c>   1</c></rc>
    <rc><c>Ag</c><c>   1</c></rc>
    <rc><c>Ag</c><c>   1</c></rc>
    <rc><c>Ag</c><c>   1</c></rc>
    <rc><c>Ag</c><c>   1</c></rc>
    <rc><c>Ag</c><c>   1</c></rc>
    <rc><c>Ag</c><c>   1</c></rc>
    <rc><c>Ag</c><c>   1</c></rc>
    <rc><c>Ag</c><c>   1</c></rc>
    <rc><c>Ag</c><c>   1</c></rc>
    <rc><c>Ag</c><c>   1</c></rc>
    <rc><c>Ag</c><c>   1</c></rc>
    <rc><c>Ag</c><c>   1</c></rc>
    <rc><c>Ag</c><c>   1</c></rc>
    <rc><c>Ag</c><c>   1</c></rc>
    <rc><c>Ag</c><c>   1</c></rc>
    <rc><c>Ag</c><c>   1</c></rc>
    <rc><c>Ag</c><c>   1</c></rc>
    <rc><c>Ag</c><c>   1</c></rc>
    <rc><c>Ag</c><c>   1</c></rc>
    <rc><c>Ag</c><c>   1</c></rc>
    <rc><c>Ag</c><c>   1</c></rc>
    <rc><c>Ag</c><c>   1</c></rc>
    <rc><c>Ag</c><c>   1</c></rc>
    <rc><c>Ag</c><c>   1</c></rc>
    <rc><c>Ag</c><c>   1</c></rc>
    <rc><c>Ag</c><c>   1</c></rc>
    <rc><c>Ag</c><c>   1</c></rc>
    <rc><c>Ag</c><c>   1</c></rc>
    <rc><c>Ag</c><c>   1</c></rc>
    <rc><c>Ag</c><c>   1</c></rc>
    <rc><c>Ag</c><c>   1</c></rc>
    <rc><c>Ag</c><c>   1</c></rc>
    <rc><c>Ag</c><c>   1</c></rc>
    <rc><c>Ag</c><c>   1</c></rc>
    <rc><c>Ag</c><c>   1</c></rc>
    <rc><c>Ag</c><c>   1</c></rc>
    <rc><c>Ag</c><c>   1</c></rc>
    <rc><c>Ag</c><c>   1</c></rc>
    <rc><c>Ag</c><c>   1</c></rc>
    <rc><c>Ag</c><c>   1</c></rc>
    <rc><c>Ag</c><c>   1</c></rc>
    <rc><c>Ag</c><c>   1</c></rc>
    <rc><c>Ag</c><c>   1</c></rc>
    <rc><c>Ag</c><c>   1</c></rc>
    <rc><c>Ag</c><c>   1</c></rc>
    <rc><c>Ag</c><c>   1</c></rc>
    <rc><c>Ag</c><c>   1</c></rc>
    <rc><c>Ag</c><c>   1</c></rc>
    <rc><c>Ag</c><c>   1</c></rc>
    <rc><c>Ag</c><c>   1</c></rc>
    <rc><c>Ag</c><c>   1</c></rc>
    <rc><c>Ag</c><c>   1</c></rc>
    <rc><c>Ag</c><c>   1</c></rc>
    <rc><c>Ag</c><c>   1</c></rc>
    <rc><c>Ag</c><c>   1</c></rc>
    <rc><c>Ag</c><c>   1</c></rc>
    <rc><c>Ag</c><c>   1</c></rc>
    <rc><c>Ag</c><c>   1</c></rc>
    <rc><c>Ag</c><c>   1</c></rc>
    <rc><c>Ag</c><c>   1</c></rc>
    <rc><c>Ag</c><c>   1</c></rc>
    <rc><c>Ag</c><c>   1</c></rc>
    <rc><c>Ag</c><c>   1</c></rc>
    <rc><c>Ag</c><c>   1</c></rc>
    <rc><c>Ag</c><c>   1</c></rc>
    <rc><c>Ag</c><c>   1</c></rc>
    <rc><c>Ag</c><c>   1</c></rc>
    <rc><c>Ag</c><c>   1</c></rc>
    <rc><c>Ag</c><c>   1</c></rc>
    <rc><c>Ag</c><c>   1</c></rc>
    <rc><c>Ag</c><c>   1</c></rc>
    <rc><c>Ag</c><c>   1</c></rc>
    <rc><c>Ag</c><c>   1</c></rc>
    <rc><c>Ag</c><c>   1</c></rc>
    <rc><c>Ag</c><c>   1</c></rc>
    <rc><c>Ag</c><c>   1</c></rc>
    <rc><c>Ag</c><c>   1</c></rc>
    <rc><c>Ag</c><c>   1</c></rc>
    <rc><c>Ag</c><c>   1</c></rc>
    <rc><c>Ag</c><c>   1</c></rc>
    <rc><c>Ag</c><c>   1</c></rc>
    <rc><c>Ag</c><c>   1</c></rc>
    <rc><c>Ag</c><c>   1</c></rc>
    <rc><c>Ag</c><c>   1</c></rc>
    <rc><c>Ag</c><c>   1</c></rc>
    <rc><c>Ag</c><c>   1</c></rc>
    <rc><c>Ag</c><c>   1</c></rc>
    <rc><c>Ag</c><c>   1</c></rc>
    <rc><c>Ag</c><c>   1</c></rc>
    <rc><c>Ag</c><c>   1</c></rc>
    <rc><c>Ag</c><c>   1</c></rc>
    <rc><c>Ag</c><c>   1</c></rc>
    <rc><c>Ag</c><c>   1</c></rc>
    <rc><c>Ag</c><c>   1</c></rc>
    <rc><c>Ag</c><c>   1</c></rc>
    <rc><c>Ag</c><c>   1</c></rc>
    <rc><c>Ag</c><c>   1</c></rc>
    <rc><c>Ag</c><c>   1</c></rc>
    <rc><c>Ag</c><c>   1</c></rc>
    <rc><c>Ag</c><c>   1</c></rc>
    <rc><c>Ag</c><c>   1</c></rc>
    <rc><c>Ag</c><c>   1</c></rc>
    <rc><c>Ag</c><c>   1</c></rc>
    <rc><c>Ag</c><c>   1</c></rc>
    <rc><c>Ag</c><c>   1</c></rc>
    <rc><c>Ag</c><c>   1</c></rc>
    <rc><c>Ag</c><c>   1</c></rc>
    <rc><c>Ag</c><c>   1</c></rc>
    <rc><c>Ag</c><c>   1</c></rc>
    <rc><c>Ag</c><c>   1</c></rc>
    <rc><c>Ag</c><c>   1</c></rc>
    <rc><c>Ag</c><c>   1</c></rc>
    <rc><c>Ag</c><c>   1</c></rc>
    <rc><c>Ag</c><c>   1</c></rc>
    <rc><c>Ag</c><c>   1</c></rc>
    <rc><c>Ag</c><c>   1</c></rc>
    <rc><c>Ag</c><c>   1</c></rc>
    <rc><c>Ag</c><c>   1</c></rc>
    <rc><c>Ag</c><c>   1</c></rc>
    <rc><c>Ag</c><c>   1</c></rc>
    <rc><c>Ag</c><c>   1</c></rc>
    <rc><c>Ag</c><c>   1</c></rc>
    <rc><c>Ag</c><c>   1</c></rc>
    <rc><c>Ag</c><c>   1</c></rc>
    <rc><c>Ag</c><c>   1</c></rc>
    <rc><c>Ag</c><c>   1</c></rc>
    <rc><c>Ag</c><c>   1</c></rc>
    <rc><c>Ag</c><c>   1</c></rc>
    <rc><c>Ag</c><c>   1</c></rc>
    <rc><c>Ag</c><c>   1</c></rc>
    <rc><c>Ag</c><c>   1</c></rc>
    <rc><c>Ag</c><c>   1</c></rc>
    <rc><c>Ag</c><c>   1</c></rc>
    <rc><c>Ag</c><c>   1</c></rc>
    <rc><c>Ag</c><c>   1</c></rc>
    <rc><c>Ag</c><c>   1</c></rc>
    <rc><c>Ag</c><c>   1</c></rc>
    <rc><c>Ag</c><c>   1</c></rc>
    <rc><c>Ag</c><c>   1</c></rc>
    <rc><c>Ag</c><c>   1</c></rc>
    <rc><c>Ag</c><c>   1</c></rc>
    <rc><c>Ag</c><c>   1</c></rc>
    <rc><c>Ag</c><c>   1</c></rc>
    <rc><c>Ag</c><c>   1</c></rc>
    <rc><c>Ag</c><c>   1</c></rc>
    <rc><c>Ag</c><c>   1</c></rc>
    <rc><c>Ag</c><c>   1</c></rc>
    <rc><c>Ag</c><c>   1</c></rc>
    <rc><c>Ag</c><c>   1</c></rc>
    <rc><c>Ag</c><c>   1</c></rc>
    <rc><c>Ag</c><c>   1</c></rc>
    <rc><c>Ag</c><c>   1</c></rc>
    <rc><c>Ag</c><c>   1</c></rc>
    <rc><c>Ag</c><c>   1</c></rc>
    <rc><c>Ag</c><c>   1</c></rc>
    <rc><c>Ag</c><c>   1</c></rc>
    <rc><c>Ag</c><c>   1</c></rc>
    <rc><c>Ag</c><c>   1</c></rc>
    <rc><c>Ag</c><c>   1</c></rc>
    <rc><c>Ag</c><c>   1</c></rc>
    <rc><c>Ag</c><c>   1</c></rc>
    <rc><c>Ag</c><c>   1</c></rc>
    <rc><c>Ag</c><c>   1</c></rc>
    <rc><c>Ag</c><c>   1</c></rc>
    <rc><c>Ag</c><c>   1</c></rc>
    <rc><c>Ag</c><c>   1</c></rc>
    <rc><c>Ag</c><c>   1</c></rc>
    <rc><c>Ag</c><c>   1</c></rc>
    <rc><c>Ag</c><c>   1</c></rc>
    <rc><c>Ag</c><c>   1</c></rc>
    <rc><c>Ag</c><c>   1</c></rc>
    <rc><c>Ag</c><c>   1</c></rc>
    <rc><c>Ag</c><c>   1</c></rc>
    <rc><c>Ag</c><c>   1</c></rc>
    <rc><c>Ag</c><c>   1</c></rc>
    <rc><c>Ag</c><c>   1</c></rc>
    <rc><c>Ag</c><c>   1</c></rc>
    <rc><c>Ag</c><c>   1</c></rc>
    <rc><c>Ag</c><c>   1</c></rc>
    <rc><c>Ag</c><c>   1</c></rc>
    <rc><c>Ag</c><c>   1</c></rc>
    <rc><c>Ag</c><c>   1</c></rc>
    <rc><c>Ag</c><c>   1</c></rc>
    <rc><c>Ag</c><c>   1</c></rc>
    <rc><c>Ag</c><c>   1</c></rc>
    <rc><c>Ag</c><c>   1</c></rc>
    <rc><c>Ag</c><c>   1</c></rc>
    <rc><c>Ag</c><c>   1</c></rc>
    <rc><c>Ag</c><c>   1</c></rc>
    <rc><c>Ag</c><c>   1</c></rc>
    <rc><c>Ag</c><c>   1</c></rc>
    <rc><c>Ag</c><c>   1</c></rc>
    <rc><c>Ag</c><c>   1</c></rc>
    <rc><c>Ag</c><c>   1</c></rc>
    <rc><c>Ag</c><c>   1</c></rc>
    <rc><c>Ag</c><c>   1</c></rc>
    <rc><c>Ag</c><c>   1</c></rc>
    <rc><c>Ag</c><c>   1</c></rc>
    <rc><c>Ag</c><c>   1</c></rc>
    <rc><c>Ag</c><c>   1</c></rc>
    <rc><c>Ag</c><c>   1</c></rc>
    <rc><c>Ag</c><c>   1</c></rc>
    <rc><c>Ag</c><c>   1</c></rc>
    <rc><c>Ag</c><c>   1</c></rc>
    <rc><c>Ag</c><c>   1</c></rc>
    <rc><c>Ag</c><c>   1</c></rc>
    <rc><c>Ag</c><c>   1</c></rc>
    <rc><c>Ag</c><c>   1</c></rc>
    <rc><c>Ag</c><c>   1</c></rc>
    <rc><c>Ag</c><c>   1</c></rc>
    <rc><c>Ag</c><c>   1</c></rc>
    <rc><c>Ag</c><c>   1</c></rc>
    <rc><c>Ag</c><c>   1</c></rc>
    <rc><c>Ag</c><c>   1</c></rc>
    <rc><c>Ag</c><c>   1</c></rc>
    <rc><c>Ag</c><c>   1</c></rc>
    <rc><c>Ag</c><c>   1</c></rc>
    <rc><c>Ag</c><c>   1</c></rc>
    <rc><c>Ag</c><c>   1</c></rc>
    <rc><c>Ag</c><c>   1</c></rc>
    <rc><c>Ag</c><c>   1</c></rc>
    <rc><c>Ag</c><c>   1</c></rc>
    <rc><c>Ag</c><c>   1</c></rc>
    <rc><c>Ag</c><c>   1</c></rc>
    <rc><c>Ag</c><c>   1</c></rc>
    <rc><c>Ag</c><c>   1</c></rc>
    <rc><c>Ag</c><c>   1</c></rc>
    <rc><c>Ag</c><c>   1</c></rc>
    <rc><c>Ag</c><c>   1</c></rc>
    <rc><c>Ag</c><c>   1</c></rc>
    <rc><c>Ag</c><c>   1</c></rc>
    <rc><c>Ag</c><c>   1</c></rc>
    <rc><c>Ag</c><c>   1</c></rc>
    <rc><c>Ag</c><c>   1</c></rc>
    <rc><c>Ag</c><c>   1</c></rc>
    <rc><c>Ag</c><c>   1</c></rc>
    <rc><c>Ag</c><c>   1</c></rc>
    <rc><c>Ag</c><c>   1</c></rc>
    <rc><c>Ag</c><c>   1</c></rc>
    <rc><c>Ag</c><c>   1</c></rc>
    <rc><c>Ag</c><c>   1</c></rc>
    <rc><c>Ag</c><c>   1</c></rc>
    <rc><c>Ag</c><c>   1</c></rc>
    <rc><c>Ag</c><c>   1</c></rc>
    <rc><c>Ag</c><c>   1</c></rc>
    <rc><c>Ag</c><c>   1</c></rc>
    <rc><c>Ag</c><c>   1</c></rc>
    <rc><c>Ag</c><c>   1</c></rc>
    <rc><c>Ag</c><c>   1</c></rc>
    <rc><c>Ag</c><c>   1</c></rc>
    <rc><c>Ag</c><c>   1</c></rc>
    <rc><c>Ag</c><c>   1</c></rc>
    <rc><c>Ag</c><c>   1</c></rc>
    <rc><c>Ag</c><c>   1</c></rc>
    <rc><c>Ag</c><c>   1</c></rc>
    <rc><c>Ag</c><c>   1</c></rc>
    <rc><c>Ag</c><c>   1</c></rc>
    <rc><c>Ag</c><c>   1</c></rc>
    <rc><c>Ag</c><c>   1</c></rc>
    <rc><c>Ag</c><c>   1</c></rc>
    <rc><c>Ag</c><c>   1</c></rc>
    <rc><c>Ag</c><c>   1</c></rc>
    <rc><c>Ag</c><c>   1</c></rc>
    <rc><c>Ag</c><c>   1</c></rc>
    <rc><c>Ag</c><c>   1</c></rc>
    <rc><c>Ag</c><c>   1</c></rc>
    <rc><c>Ag</c><c>   1</c></rc>
    <rc><c>Ag</c><c>   1</c></rc>
    <rc><c>Ag</c><c>   1</c></rc>
    <rc><c>Ag</c><c>   1</c></rc>
    <rc><c>Ag</c><c>   1</c></rc>
    <rc><c>Ag</c><c>   1</c></rc>
    <rc><c>Ag</c><c>   1</c></rc>
    <rc><c>Ag</c><c>   1</c></rc>
    <rc><c>Ag</c><c>   1</c></rc>
    <rc><c>Ag</c><c>   1</c></rc>
    <rc><c>Ag</c><c>   1</c></rc>
    <rc><c>Ag</c><c>   1</c></rc>
    <rc><c>Ag</c><c>   1</c></rc>
    <rc><c>Ag</c><c>   1</c></rc>
    <rc><c>Ag</c><c>   1</c></rc>
    <rc><c>Ag</c><c>   1</c></rc>
    <rc><c>Ag</c><c>   1</c></rc>
    <rc><c>Ag</c><c>   1</c></rc>
    <rc><c>Ag</c><c>   1</c></rc>
    <rc><c>Ag</c><c>   1</c></rc>
    <rc><c>Ag</c><c>   1</c></rc>
    <rc><c>Ag</c><c>   1</c></rc>
    <rc><c>Ag</c><c>   1</c></rc>
    <rc><c>Ag</c><c>   1</c></rc>
    <rc><c>Ag</c><c>   1</c></rc>
    <rc><c>Ag</c><c>   1</c></rc>
    <rc><c>Ag</c><c>   1</c></rc>
    <rc><c>Ag</c><c>   1</c></rc>
    <rc><c>Ag</c><c>   1</c></rc>
    <rc><c>Ag</c><c>   1</c></rc>
    <rc><c>Ag</c><c>   1</c></rc>
    <rc><c>Ag</c><c>   1</c></rc>
    <rc><c>Ag</c><c>   1</c></rc>
    <rc><c>Ag</c><c>   1</c></rc>
    <rc><c>Ag</c><c>   1</c></rc>
    <rc><c>Ag</c><c>   1</c></rc>
    <rc><c>Ag</c><c>   1</c></rc>
    <rc><c>Ag</c><c>   1</c></rc>
    <rc><c>Ag</c><c>   1</c></rc>
    <rc><c>Ag</c><c>   1</c></rc>
    <rc><c>Ag</c><c>   1</c></rc>
    <rc><c>Ag</c><c>   1</c></rc>
    <rc><c>Ag</c><c>   1</c></rc>
    <rc><c>Ag</c><c>   1</c></rc>
    <rc><c>Ag</c><c>   1</c></rc>
    <rc><c>Ag</c><c>   1</c></rc>
    <rc><c>Ag</c><c>   1</c></rc>
    <rc><c>Ag</c><c>   1</c></rc>
    <rc><c>Ag</c><c>   1</c></rc>
    <rc><c>Ag</c><c>   1</c></rc>
    <rc><c>Ag</c><c>   1</c></rc>
    <rc><c>Ag</c><c>   1</c></rc>
    <rc><c>Ag</c><c>   1</c></rc>
    <rc><c>Ag</c><c>   1</c></rc>
    <rc><c>Ag</c><c>   1</c></rc>
    <rc><c>Ag</c><c>   1</c></rc>
    <rc><c>Ag</c><c>   1</c></rc>
    <rc><c>Ag</c><c>   1</c></rc>
    <rc><c>Ag</c><c>   1</c></rc>
    <rc><c>Ag</c><c>   1</c></rc>
    <rc><c>Ag</c><c>   1</c></rc>
    <rc><c>Ag</c><c>   1</c></rc>
    <rc><c>Ag</c><c>   1</c></rc>
    <rc><c>Ag</c><c>   1</c></rc>
    <rc><c>Ag</c><c>   1</c></rc>
    <rc><c>Ag</c><c>   1</c></rc>
    <rc><c>Ag</c><c>   1</c></rc>
    <rc><c>Ag</c><c>   1</c></rc>
    <rc><c>Ag</c><c>   1</c></rc>
    <rc><c>Ag</c><c>   1</c></rc>
    <rc><c>Ag</c><c>   1</c></rc>
    <rc><c>Ag</c><c>   1</c></rc>
    <rc><c>Ag</c><c>   1</c></rc>
    <rc><c>Ag</c><c>   1</c></rc>
    <rc><c>Ag</c><c>   1</c></rc>
    <rc><c>Ag</c><c>   1</c></rc>
    <rc><c>Ag</c><c>   1</c></rc>
    <rc><c>Ag</c><c>   1</c></rc>
    <rc><c>Ag</c><c>   1</c></rc>
    <rc><c>Ag</c><c>   1</c></rc>
    <rc><c>Ag</c><c>   1</c></rc>
    <rc><c>Ag</c><c>   1</c></rc>
    <rc><c>Ag</c><c>   1</c></rc>
    <rc><c>Ag</c><c>   1</c></rc>
    <rc><c>Ag</c><c>   1</c></rc>
    <rc><c>Ag</c><c>   1</c></rc>
    <rc><c>Ag</c><c>   1</c></rc>
    <rc><c>Ag</c><c>   1</c></rc>
    <rc><c>Ag</c><c>   1</c></rc>
    <rc><c>Ag</c><c>   1</c></rc>
    <rc><c>Ag</c><c>   1</c></rc>
    <rc><c>Ag</c><c>   1</c></rc>
    <rc><c>Ag</c><c>   1</c></rc>
    <rc><c>Ag</c><c>   1</c></rc>
    <rc><c>Ag</c><c>   1</c></rc>
    <rc><c>Ag</c><c>   1</c></rc>
    <rc><c>Ag</c><c>   1</c></rc>
    <rc><c>Ag</c><c>   1</c></rc>
    <rc><c>Ag</c><c>   1</c></rc>
    <rc><c>Ag</c><c>   1</c></rc>
    <rc><c>Ag</c><c>   1</c></rc>
    <rc><c>Ag</c><c>   1</c></rc>
    <rc><c>Ag</c><c>   1</c></rc>
    <rc><c>Ag</c><c>   1</c></rc>
    <rc><c>Ag</c><c>   1</c></rc>
    <rc><c>Ag</c><c>   1</c></rc>
    <rc><c>Ag</c><c>   1</c></rc>
    <rc><c>Ag</c><c>   1</c></rc>
    <rc><c>Ag</c><c>   1</c></rc>
    <rc><c>Ag</c><c>   1</c></rc>
    <rc><c>Ag</c><c>   1</c></rc>
    <rc><c>Ag</c><c>   1</c></rc>
    <rc><c>Ag</c><c>   1</c></rc>
    <rc><c>Ag</c><c>   1</c></rc>
    <rc><c>Ag</c><c>   1</c></rc>
    <rc><c>Ag</c><c>   1</c></rc>
    <rc><c>Ag</c><c>   1</c></rc>
    <rc><c>Ag</c><c>   1</c></rc>
    <rc><c>Ag</c><c>   1</c></rc>
    <rc><c>Ag</c><c>   1</c></rc>
    <rc><c>Ag</c><c>   1</c></rc>
    <rc><c>Ag</c><c>   1</c></rc>
    <rc><c>Ag</c><c>   1</c></rc>
    <rc><c>Ag</c><c>   1</c></rc>
    <rc><c>Ag</c><c>   1</c></rc>
    <rc><c>Ag</c><c>   1</c></rc>
    <rc><c>Ag</c><c>   1</c></rc>
    <rc><c>Ag</c><c>   1</c></rc>
    <rc><c>Ag</c><c>   1</c></rc>
    <rc><c>Ag</c><c>   1</c></rc>
    <rc><c>Ag</c><c>   1</c></rc>
    <rc><c>Ag</c><c>   1</c></rc>
    <rc><c>Ag</c><c>   1</c></rc>
    <rc><c>Ag</c><c>   1</c></rc>
    <rc><c>Ag</c><c>   1</c></rc>
    <rc><c>Ag</c><c>   1</c></rc>
    <rc><c>Ag</c><c>   1</c></rc>
    <rc><c>Ag</c><c>   1</c></rc>
    <rc><c>Ag</c><c>   1</c></rc>
    <rc><c>Ag</c><c>   1</c></rc>
    <rc><c>Ag</c><c>   1</c></rc>
    <rc><c>Ag</c><c>   1</c></rc>
    <rc><c>Ag</c><c>   1</c></rc>
    <rc><c>Ag</c><c>   1</c></rc>
    <rc><c>Ag</c><c>   1</c></rc>
    <rc><c>Ag</c><c>   1</c></rc>
    <rc><c>Ag</c><c>   1</c></rc>
    <rc><c>Ag</c><c>   1</c></rc>
    <rc><c>Ag</c><c>   1</c></rc>
    <rc><c>Ag</c><c>   1</c></rc>
    <rc><c>Ag</c><c>   1</c></rc>
    <rc><c>Ag</c><c>   1</c></rc>
    <rc><c>Ag</c><c>   1</c></rc>
    <rc><c>Ag</c><c>   1</c></rc>
    <rc><c>Ag</c><c>   1</c></rc>
    <rc><c>Ag</c><c>   1</c></rc>
    <rc><c>Ag</c><c>   1</c></rc>
    <rc><c>Ag</c><c>   1</c></rc>
    <rc><c>Ag</c><c>   1</c></rc>
    <rc><c>Ag</c><c>   1</c></rc>
    <rc><c>Ag</c><c>   1</c></rc>
    <rc><c>Ag</c><c>   1</c></rc>
    <rc><c>Ag</c><c>   1</c></rc>
    <rc><c>Ag</c><c>   1</c></rc>
    <rc><c>Ag</c><c>   1</c></rc>
    <rc><c>Ag</c><c>   1</c></rc>
    <rc><c>Ag</c><c>   1</c></rc>
    <rc><c>Ag</c><c>   1</c></rc>
    <rc><c>Ag</c><c>   1</c></rc>
    <rc><c>Ag</c><c>   1</c></rc>
    <rc><c>Ag</c><c>   1</c></rc>
    <rc><c>Ag</c><c>   1</c></rc>
    <rc><c>Ag</c><c>   1</c></rc>
    <rc><c>Ag</c><c>   1</c></rc>
    <rc><c>Ag</c><c>   1</c></rc>
    <rc><c>Ag</c><c>   1</c></rc>
    <rc><c>Ag</c><c>   1</c></rc>
    <rc><c>Ag</c><c>   1</c></rc>
    <rc><c>Ag</c><c>   1</c></rc>
    <rc><c>Ag</c><c>   1</c></rc>
    <rc><c>Ag</c><c>   1</c></rc>
    <rc><c>Ag</c><c>   1</c></rc>
    <rc><c>Ag</c><c>   1</c></rc>
    <rc><c>Ag</c><c>   1</c></rc>
    <rc><c>Ag</c><c>   1</c></rc>
    <rc><c>Ag</c><c>   1</c></rc>
    <rc><c>Ag</c><c>   1</c></rc>
    <rc><c>Ag</c><c>   1</c></rc>
    <rc><c>Ag</c><c>   1</c></rc>
    <rc><c>Ag</c><c>   1</c></rc>
    <rc><c>Ag</c><c>   1</c></rc>
    <rc><c>Ag</c><c>   1</c></rc>
    <rc><c>Ag</c><c>   1</c></rc>
    <rc><c>Ag</c><c>   1</c></rc>
    <rc><c>Ag</c><c>   1</c></rc>
    <rc><c>Ag</c><c>   1</c></rc>
    <rc><c>Ag</c><c>   1</c></rc>
    <rc><c>Ag</c><c>   1</c></rc>
    <rc><c>Ag</c><c>   1</c></rc>
    <rc><c>Ag</c><c>   1</c></rc>
    <rc><c>Ag</c><c>   1</c></rc>
    <rc><c>Ag</c><c>   1</c></rc>
    <rc><c>Ag</c><c>   1</c></rc>
    <rc><c>Ag</c><c>   1</c></rc>
    <rc><c>Ag</c><c>   1</c></rc>
    <rc><c>Ag</c><c>   1</c></rc>
    <rc><c>Ag</c><c>   1</c></rc>
    <rc><c>Ag</c><c>   1</c></rc>
    <rc><c>Ag</c><c>   1</c></rc>
    <rc><c>Ag</c><c>   1</c></rc>
    <rc><c>Ag</c><c>   1</c></rc>
    <rc><c>Ag</c><c>   1</c></rc>
    <rc><c>Ag</c><c>   1</c></rc>
    <rc><c>Ag</c><c>   1</c></rc>
    <rc><c>Ag</c><c>   1</c></rc>
    <rc><c>Ag</c><c>   1</c></rc>
    <rc><c>Ag</c><c>   1</c></rc>
    <rc><c>Ag</c><c>   1</c></rc>
    <rc><c>Ag</c><c>   1</c></rc>
    <rc><c>Ag</c><c>   1</c></rc>
    <rc><c>Ag</c><c>   1</c></rc>
    <rc><c>Ag</c><c>   1</c></rc>
    <rc><c>Ag</c><c>   1</c></rc>
    <rc><c>Ag</c><c>   1</c></rc>
    <rc><c>Ag</c><c>   1</c></rc>
    <rc><c>Ag</c><c>   1</c></rc>
    <rc><c>Ag</c><c>   1</c></rc>
    <rc><c>Ag</c><c>   1</c></rc>
    <rc><c>Ag</c><c>   1</c></rc>
    <rc><c>Ag</c><c>   1</c></rc>
    <rc><c>Ag</c><c>   1</c></rc>
    <rc><c>Ag</c><c>   1</c></rc>
    <rc><c>Ag</c><c>   1</c></rc>
    <rc><c>Ag</c><c>   1</c></rc>
    <rc><c>Ag</c><c>   1</c></rc>
    <rc><c>Ag</c><c>   1</c></rc>
    <rc><c>Ag</c><c>   1</c></rc>
    <rc><c>Ag</c><c>   1</c></rc>
    <rc><c>Ag</c><c>   1</c></rc>
    <rc><c>Ag</c><c>   1</c></rc>
    <rc><c>Ag</c><c>   1</c></rc>
    <rc><c>Ag</c><c>   1</c></rc>
    <rc><c>Ag</c><c>   1</c></rc>
    <rc><c>Ag</c><c>   1</c></rc>
    <rc><c>Ag</c><c>   1</c></rc>
    <rc><c>Ag</c><c>   1</c></rc>
    <rc><c>Ag</c><c>   1</c></rc>
    <rc><c>Ag</c><c>   1</c></rc>
    <rc><c>Ag</c><c>   1</c></rc>
    <rc><c>Ag</c><c>   1</c></rc>
    <rc><c>Ag</c><c>   1</c></rc>
    <rc><c>Ag</c><c>   1</c></rc>
    <rc><c>Ag</c><c>   1</c></rc>
    <rc><c>Ag</c><c>   1</c></rc>
    <rc><c>Ag</c><c>   1</c></rc>
    <rc><c>Ag</c><c>   1</c></rc>
    <rc><c>Ag</c><c>   1</c></rc>
    <rc><c>Ag</c><c>   1</c></rc>
    <rc><c>Ag</c><c>   1</c></rc>
    <rc><c>Ag</c><c>   1</c></rc>
    <rc><c>Ag</c><c>   1</c></rc>
    <rc><c>Ag</c><c>   1</c></rc>
    <rc><c>Ag</c><c>   1</c></rc>
    <rc><c>Ag</c><c>   1</c></rc>
    <rc><c>Ag</c><c>   1</c></rc>
    <rc><c>Ag</c><c>   1</c></rc>
    <rc><c>Ag</c><c>   1</c></rc>
    <rc><c>Ag</c><c>   1</c></rc>
    <rc><c>Ag</c><c>   1</c></rc>
    <rc><c>Ag</c><c>   1</c></rc>
    <rc><c>Ag</c><c>   1</c></rc>
    <rc><c>Ag</c><c>   1</c></rc>
    <rc><c>Ag</c><c>   1</c></rc>
    <rc><c>Ag</c><c>   1</c></rc>
    <rc><c>Ag</c><c>   1</c></rc>
    <rc><c>Ag</c><c>   1</c></rc>
    <rc><c>Ag</c><c>   1</c></rc>
    <rc><c>Ag</c><c>   1</c></rc>
    <rc><c>Ag</c><c>   1</c></rc>
    <rc><c>Ag</c><c>   1</c></rc>
    <rc><c>Ag</c><c>   1</c></rc>
    <rc><c>Ag</c><c>   1</c></rc>
    <rc><c>Ag</c><c>   1</c></rc>
    <rc><c>Ag</c><c>   1</c></rc>
    <rc><c>Ag</c><c>   1</c></rc>
    <rc><c>Ag</c><c>   1</c></rc>
    <rc><c>Ag</c><c>   1</c></rc>
    <rc><c>Ag</c><c>   1</c></rc>
    <rc><c>Ag</c><c>   1</c></rc>
    <rc><c>Ag</c><c>   1</c></rc>
    <rc><c>Ag</c><c>   1</c></rc>
    <rc><c>Ag</c><c>   1</c></rc>
    <rc><c>Ag</c><c>   1</c></rc>
    <rc><c>Ag</c><c>   1</c></rc>
    <rc><c>Ag</c><c>   1</c></rc>
    <rc><c>Ag</c><c>   1</c></rc>
    <rc><c>Ag</c><c>   1</c></rc>
    <rc><c>Ag</c><c>   1</c></rc>
    <rc><c>Ag</c><c>   1</c></rc>
    <rc><c>Ag</c><c>   1</c></rc>
    <rc><c>Ag</c><c>   1</c></rc>
    <rc><c>Ag</c><c>   1</c></rc>
    <rc><c>Ag</c><c>   1</c></rc>
    <rc><c>Ag</c><c>   1</c></rc>
    <rc><c>Ag</c><c>   1</c></rc>
    <rc><c>Ag</c><c>   1</c></rc>
    <rc><c>Ag</c><c>   1</c></rc>
    <rc><c>Ag</c><c>   1</c></rc>
    <rc><c>Ag</c><c>   1</c></rc>
    <rc><c>Ag</c><c>   1</c></rc>
    <rc><c>Ag</c><c>   1</c></rc>
    <rc><c>Ag</c><c>   1</c></rc>
    <rc><c>Ag</c><c>   1</c></rc>
    <rc><c>Ag</c><c>   1</c></rc>
    <rc><c>Ag</c><c>   1</c></rc>
    <rc><c>Ag</c><c>   1</c></rc>
    <rc><c>Ag</c><c>   1</c></rc>
    <rc><c>Ag</c><c>   1</c></rc>
    <rc><c>Ag</c><c>   1</c></rc>
    <rc><c>Ag</c><c>   1</c></rc>
    <rc><c>Ag</c><c>   1</c></rc>
    <rc><c>Ag</c><c>   1</c></rc>
    <rc><c>Ag</c><c>   1</c></rc>
    <rc><c>Ag</c><c>   1</c></rc>
    <rc><c>Ag</c><c>   1</c></rc>
    <rc><c>Ag</c><c>   1</c></rc>
    <rc><c>Ag</c><c>   1</c></rc>
    <rc><c>Ag</c><c>   1</c></rc>
    <rc><c>Ag</c><c>   1</c></rc>
    <rc><c>Ag</c><c>   1</c></rc>
    <rc><c>Ag</c><c>   1</c></rc>
    <rc><c>Ag</c><c>   1</c></rc>
    <rc><c>Ag</c><c>   1</c></rc>
    <rc><c>Ag</c><c>   1</c></rc>
    <rc><c>Ag</c><c>   1</c></rc>
    <rc><c>Ag</c><c>   1</c></rc>
    <rc><c>Ag</c><c>   1</c></rc>
    <rc><c>Ag</c><c>   1</c></rc>
    <rc><c>Ag</c><c>   1</c></rc>
    <rc><c>Ag</c><c>   1</c></rc>
    <rc><c>Ag</c><c>   1</c></rc>
    <rc><c>Ag</c><c>   1</c></rc>
    <rc><c>Ag</c><c>   1</c></rc>
    <rc><c>Ag</c><c>   1</c></rc>
    <rc><c>Ag</c><c>   1</c></rc>
    <rc><c>Ag</c><c>   1</c></rc>
    <rc><c>Ag</c><c>   1</c></rc>
    <rc><c>Ag</c><c>   1</c></rc>
    <rc><c>Ag</c><c>   1</c></rc>
    <rc><c>Ag</c><c>   1</c></rc>
    <rc><c>Ag</c><c>   1</c></rc>
    <rc><c>Ag</c><c>   1</c></rc>
    <rc><c>Ag</c><c>   1</c></rc>
    <rc><c>Ag</c><c>   1</c></rc>
    <rc><c>Ag</c><c>   1</c></rc>
    <rc><c>Ag</c><c>   1</c></rc>
    <rc><c>Ag</c><c>   1</c></rc>
    <rc><c>Ag</c><c>   1</c></rc>
    <rc><c>Ag</c><c>   1</c></rc>
    <rc><c>Ag</c><c>   1</c></rc>
    <rc><c>Ag</c><c>   1</c></rc>
    <rc><c>Ag</c><c>   1</c></rc>
    <rc><c>Ag</c><c>   1</c></rc>
    <rc><c>Ag</c><c>   1</c></rc>
    <rc><c>Ag</c><c>   1</c></rc>
    <rc><c>Ag</c><c>   1</c></rc>
    <rc><c>Ag</c><c>   1</c></rc>
    <rc><c>Ag</c><c>   1</c></rc>
    <rc><c>Ag</c><c>   1</c></rc>
    <rc><c>Ag</c><c>   1</c></rc>
    <rc><c>Ag</c><c>   1</c></rc>
    <rc><c>Ag</c><c>   1</c></rc>
    <rc><c>Ag</c><c>   1</c></rc>
    <rc><c>Ag</c><c>   1</c></rc>
    <rc><c>Ag</c><c>   1</c></rc>
    <rc><c>Ag</c><c>   1</c></rc>
    <rc><c>Ag</c><c>   1</c></rc>
    <rc><c>Ag</c><c>   1</c></rc>
    <rc><c>Ag</c><c>   1</c></rc>
    <rc><c>Ag</c><c>   1</c></rc>
    <rc><c>Ag</c><c>   1</c></rc>
    <rc><c>Ag</c><c>   1</c></rc>
    <rc><c>Ag</c><c>   1</c></rc>
    <rc><c>Ag</c><c>   1</c></rc>
    <rc><c>Ag</c><c>   1</c></rc>
    <rc><c>Ag</c><c>   1</c></rc>
    <rc><c>Ag</c><c>   1</c></rc>
    <rc><c>Ag</c><c>   1</c></rc>
    <rc><c>Ag</c><c>   1</c></rc>
    <rc><c>Ag</c><c>   1</c></rc>
    <rc><c>Ag</c><c>   1</c></rc>
    <rc><c>Ag</c><c>   1</c></rc>
    <rc><c>Ag</c><c>   1</c></rc>
    <rc><c>Ag</c><c>   1</c></rc>
    <rc><c>Ag</c><c>   1</c></rc>
    <rc><c>Ag</c><c>   1</c></rc>
    <rc><c>Ag</c><c>   1</c></rc>
    <rc><c>Ag</c><c>   1</c></rc>
    <rc><c>Ag</c><c>   1</c></rc>
    <rc><c>Ag</c><c>   1</c></rc>
    <rc><c>Ag</c><c>   1</c></rc>
    <rc><c>Ag</c><c>   1</c></rc>
    <rc><c>Ag</c><c>   1</c></rc>
    <rc><c>Ag</c><c>   1</c></rc>
    <rc><c>Ag</c><c>   1</c></rc>
    <rc><c>Ag</c><c>   1</c></rc>
    <rc><c>Ag</c><c>   1</c></rc>
    <rc><c>Ag</c><c>   1</c></rc>
    <rc><c>Ag</c><c>   1</c></rc>
    <rc><c>Ag</c><c>   1</c></rc>
    <rc><c>Ag</c><c>   1</c></rc>
    <rc><c>Ag</c><c>   1</c></rc>
    <rc><c>Ag</c><c>   1</c></rc>
    <rc><c>Ag</c><c>   1</c></rc>
    <rc><c>Ag</c><c>   1</c></rc>
    <rc><c>Ag</c><c>   1</c></rc>
    <rc><c>Ag</c><c>   1</c></rc>
    <rc><c>Ag</c><c>   1</c></rc>
    <rc><c>Ag</c><c>   1</c></rc>
    <rc><c>Ag</c><c>   1</c></rc>
    <rc><c>Ag</c><c>   1</c></rc>
    <rc><c>Ag</c><c>   1</c></rc>
    <rc><c>Ag</c><c>   1</c></rc>
    <rc><c>Ag</c><c>   1</c></rc>
    <rc><c>Ag</c><c>   1</c></rc>
    <rc><c>Ag</c><c>   1</c></rc>
    <rc><c>Ag</c><c>   1</c></rc>
    <rc><c>Ag</c><c>   1</c></rc>
    <rc><c>Ag</c><c>   1</c></rc>
    <rc><c>Ag</c><c>   1</c></rc>
    <rc><c>Ag</c><c>   1</c></rc>
    <rc><c>Ag</c><c>   1</c></rc>
    <rc><c>Ag</c><c>   1</c></rc>
    <rc><c>Ag</c><c>   1</c></rc>
    <rc><c>Ag</c><c>   1</c></rc>
    <rc><c>Ag</c><c>   1</c></rc>
    <rc><c>Ag</c><c>   1</c></rc>
    <rc><c>Ag</c><c>   1</c></rc>
    <rc><c>Ag</c><c>   1</c></rc>
    <rc><c>Ag</c><c>   1</c></rc>
    <rc><c>Ag</c><c>   1</c></rc>
    <rc><c>Ag</c><c>   1</c></rc>
    <rc><c>Ag</c><c>   1</c></rc>
    <rc><c>Ag</c><c>   1</c></rc>
    <rc><c>Ag</c><c>   1</c></rc>
    <rc><c>Ag</c><c>   1</c></rc>
    <rc><c>Ag</c><c>   1</c></rc>
    <rc><c>Ag</c><c>   1</c></rc>
    <rc><c>Ag</c><c>   1</c></rc>
    <rc><c>Ag</c><c>   1</c></rc>
    <rc><c>Ag</c><c>   1</c></rc>
    <rc><c>Ag</c><c>   1</c></rc>
    <rc><c>Ag</c><c>   1</c></rc>
    <rc><c>Ag</c><c>   1</c></rc>
    <rc><c>Ag</c><c>   1</c></rc>
    <rc><c>Ag</c><c>   1</c></rc>
    <rc><c>Ag</c><c>   1</c></rc>
    <rc><c>Ag</c><c>   1</c></rc>
    <rc><c>Ag</c><c>   1</c></rc>
    <rc><c>Ag</c><c>   1</c></rc>
    <rc><c>Ag</c><c>   1</c></rc>
    <rc><c>Ag</c><c>   1</c></rc>
    <rc><c>Ag</c><c>   1</c></rc>
    <rc><c>Ag</c><c>   1</c></rc>
    <rc><c>Ag</c><c>   1</c></rc>
    <rc><c>Ag</c><c>   1</c></rc>
    <rc><c>Ag</c><c>   1</c></rc>
    <rc><c>Ag</c><c>   1</c></rc>
    <rc><c>Ag</c><c>   1</c></rc>
    <rc><c>Ag</c><c>   1</c></rc>
    <rc><c>Ag</c><c>   1</c></rc>
    <rc><c>Ag</c><c>   1</c></rc>
    <rc><c>Ag</c><c>   1</c></rc>
    <rc><c>Ag</c><c>   1</c></rc>
    <rc><c>Ag</c><c>   1</c></rc>
    <rc><c>Ag</c><c>   1</c></rc>
    <rc><c>Ag</c><c>   1</c></rc>
    <rc><c>Ag</c><c>   1</c></rc>
    <rc><c>Ag</c><c>   1</c></rc>
    <rc><c>Ag</c><c>   1</c></rc>
    <rc><c>Ag</c><c>   1</c></rc>
    <rc><c>Ag</c><c>   1</c></rc>
    <rc><c>Ag</c><c>   1</c></rc>
    <rc><c>Ag</c><c>   1</c></rc>
    <rc><c>Ag</c><c>   1</c></rc>
    <rc><c>Ag</c><c>   1</c></rc>
    <rc><c>Ag</c><c>   1</c></rc>
    <rc><c>Ag</c><c>   1</c></rc>
    <rc><c>Ag</c><c>   1</c></rc>
    <rc><c>Ag</c><c>   1</c></rc>
    <rc><c>Ag</c><c>   1</c></rc>
    <rc><c>Ag</c><c>   1</c></rc>
    <rc><c>Ag</c><c>   1</c></rc>
    <rc><c>Ag</c><c>   1</c></rc>
    <rc><c>Ag</c><c>   1</c></rc>
    <rc><c>Ag</c><c>   1</c></rc>
    <rc><c>Ag</c><c>   1</c></rc>
    <rc><c>Ag</c><c>   1</c></rc>
    <rc><c>Ag</c><c>   1</c></rc>
    <rc><c>Ag</c><c>   1</c></rc>
    <rc><c>Ag</c><c>   1</c></rc>
    <rc><c>Ag</c><c>   1</c></rc>
    <rc><c>Ag</c><c>   1</c></rc>
    <rc><c>Ag</c><c>   1</c></rc>
    <rc><c>Ag</c><c>   1</c></rc>
    <rc><c>Ag</c><c>   1</c></rc>
    <rc><c>Ag</c><c>   1</c></rc>
    <rc><c>Ag</c><c>   1</c></rc>
    <rc><c>Ag</c><c>   1</c></rc>
    <rc><c>Ag</c><c>   1</c></rc>
    <rc><c>Ag</c><c>   1</c></rc>
    <rc><c>Ag</c><c>   1</c></rc>
    <rc><c>Ag</c><c>   1</c></rc>
    <rc><c>Ag</c><c>   1</c></rc>
    <rc><c>Ag</c><c>   1</c></rc>
    <rc><c>Ag</c><c>   1</c></rc>
    <rc><c>Ag</c><c>   1</c></rc>
    <rc><c>Ag</c><c>   1</c></rc>
    <rc><c>Ag</c><c>   1</c></rc>
    <rc><c>Ag</c><c>   1</c></rc>
    <rc><c>Ag</c><c>   1</c></rc>
    <rc><c>Ag</c><c>   1</c></rc>
    <rc><c>Ag</c><c>   1</c></rc>
    <rc><c>Ag</c><c>   1</c></rc>
    <rc><c>Ag</c><c>   1</c></rc>
    <rc><c>Ag</c><c>   1</c></rc>
    <rc><c>Ag</c><c>   1</c></rc>
    <rc><c>Ag</c><c>   1</c></rc>
    <rc><c>Ag</c><c>   1</c></rc>
    <rc><c>Ag</c><c>   1</c></rc>
    <rc><c>Ag</c><c>   1</c></rc>
    <rc><c>Ag</c><c>   1</c></rc>
    <rc><c>Ag</c><c>   1</c></rc>
    <rc><c>Ag</c><c>   1</c></rc>
    <rc><c>Ag</c><c>   1</c></rc>
    <rc><c>Ag</c><c>   1</c></rc>
    <rc><c>Ag</c><c>   1</c></rc>
    <rc><c>Ag</c><c>   1</c></rc>
    <rc><c>Ag</c><c>   1</c></rc>
    <rc><c>Ag</c><c>   1</c></rc>
    <rc><c>Ag</c><c>   1</c></rc>
    <rc><c>Ag</c><c>   1</c></rc>
    <rc><c>Ag</c><c>   1</c></rc>
    <rc><c>Ag</c><c>   1</c></rc>
    <rc><c>Ag</c><c>   1</c></rc>
    <rc><c>Ag</c><c>   1</c></rc>
    <rc><c>Ag</c><c>   1</c></rc>
    <rc><c>Ag</c><c>   1</c></rc>
    <rc><c>Ag</c><c>   1</c></rc>
    <rc><c>Ag</c><c>   1</c></rc>
    <rc><c>Ag</c><c>   1</c></rc>
    <rc><c>Ag</c><c>   1</c></rc>
    <rc><c>Ag</c><c>   1</c></rc>
    <rc><c>Ag</c><c>   1</c></rc>
    <rc><c>Ag</c><c>   1</c></rc>
    <rc><c>Ag</c><c>   1</c></rc>
    <rc><c>Ag</c><c>   1</c></rc>
    <rc><c>Ag</c><c>   1</c></rc>
    <rc><c>Ag</c><c>   1</c></rc>
    <rc><c>Ag</c><c>   1</c></rc>
    <rc><c>Ag</c><c>   1</c></rc>
    <rc><c>Ag</c><c>   1</c></rc>
    <rc><c>Ag</c><c>   1</c></rc>
    <rc><c>Ag</c><c>   1</c></rc>
    <rc><c>Ag</c><c>   1</c></rc>
    <rc><c>Ag</c><c>   1</c></rc>
    <rc><c>Ag</c><c>   1</c></rc>
    <rc><c>Ag</c><c>   1</c></rc>
    <rc><c>Ag</c><c>   1</c></rc>
    <rc><c>Ag</c><c>   1</c></rc>
    <rc><c>Ag</c><c>   1</c></rc>
    <rc><c>Ag</c><c>   1</c></rc>
    <rc><c>Ag</c><c>   1</c></rc>
    <rc><c>Ag</c><c>   1</c></rc>
    <rc><c>Ag</c><c>   1</c></rc>
    <rc><c>Ag</c><c>   1</c></rc>
    <rc><c>Ag</c><c>   1</c></rc>
    <rc><c>Ag</c><c>   1</c></rc>
    <rc><c>Ag</c><c>   1</c></rc>
    <rc><c>Ag</c><c>   1</c></rc>
    <rc><c>Ag</c><c>   1</c></rc>
    <rc><c>Ag</c><c>   1</c></rc>
    <rc><c>Ag</c><c>   1</c></rc>
    <rc><c>Ag</c><c>   1</c></rc>
    <rc><c>Ag</c><c>   1</c></rc>
    <rc><c>Ag</c><c>   1</c></rc>
    <rc><c>Ag</c><c>   1</c></rc>
    <rc><c>Ag</c><c>   1</c></rc>
    <rc><c>Ag</c><c>   1</c></rc>
    <rc><c>Ag</c><c>   1</c></rc>
    <rc><c>Ag</c><c>   1</c></rc>
    <rc><c>Ag</c><c>   1</c></rc>
    <rc><c>Ag</c><c>   1</c></rc>
    <rc><c>Ag</c><c>   1</c></rc>
    <rc><c>Ag</c><c>   1</c></rc>
    <rc><c>Ag</c><c>   1</c></rc>
    <rc><c>Ag</c><c>   1</c></rc>
    <rc><c>Ag</c><c>   1</c></rc>
    <rc><c>Ag</c><c>   1</c></rc>
    <rc><c>Ag</c><c>   1</c></rc>
    <rc><c>C </c><c>   2</c></rc>
    <rc><c>C </c><c>   2</c></rc>
    <rc><c>C </c><c>   2</c></rc>
    <rc><c>C </c><c>   2</c></rc>
    <rc><c>H </c><c>   3</c></rc>
    <rc><c>H </c><c>   3</c></rc>
    <rc><c>H </c><c>   3</c></rc>
    <rc><c>H </c><c>   3</c></rc>
    <rc><c>H </c><c>   3</c></rc>
    <rc><c>H </c><c>   3</c></rc>
    <rc><c>H </c><c>   3</c></rc>
    <rc><c>H </c><c>   3</c></rc>
    <rc><c>H </c><c>   3</c></rc>
    <rc><c>H </c><c>   3</c></rc>
    <rc><c>S </c><c>   4</c></rc>
   </set>
  </array>
  <array name="atomtypes" >
   <dimension dim="1">type</dimension>
   <field type="int">atomspertype</field>
   <field type="string">element</field>
   <field>mass</field>
   <field>valence</field>
   <field type="string">pseudopotential</field>
   <set>
    <rc><c>1134</c><c>Ag</c><c>    107.86800000</c><c>     11.00000000</c><c> PAW_PBE Ag 06Sep2000                   </c></rc>
    <rc><c>   4</c><c>C </c><c>     12.01100000</c><c>      4.00000000</c><c> PAW_PBE C 08Apr2002                    </c></rc>
    <rc><c>  10</c><c>H </c><c>      1.00000000</c><c>      1.00000000</c><c> PAW_PBE H 15Jun2001                    </c></rc>
    <rc><c>   1</c><c>S </c><c>     32.06600000</c><c>      6.00000000</c><c>  PAW_PBE S 17Jan2003                   </c></rc>
   </set>
  </array>
 </atominfo>
 <structure name="initialpos" >
  <crystal>
   <varray name="basis" >
    <v>      33.93000000       0.00000000       0.00000000 </v>
    <v>       0.00000000      33.93000000       0.00000000 </v>
    <v>       0.00000000       0.00000000      50.00000000 </v>
   </varray>
   <i name="volume">  57562.24500000 </i>
   <varray name="rec_basis" >
    <v>       0.02947244       0.00000000       0.00000000 </v>
    <v>       0.00000000       0.02947244       0.00000000 </v>
    <v>       0.00000000       0.00000000       0.02000000 </v>
   </varray>
  </crystal>
  <varray name="positions" >
   <v>       0.02777778       0.02777778       0.36805000 </v>
   <v>       0.08333333       0.08333333       0.36805000 </v>
   <v>       0.02777778       0.08333333       0.40575000 </v>
   <v>       0.08333333       0.02777778       0.40575000 </v>
   <v>       0.02777778       0.02777778       0.44345000 </v>
   <v>       0.08333333       0.08333333       0.44345000 </v>
   <v>       0.02777778       0.08333333       0.48115000 </v>
   <v>       0.08333333       0.02777778       0.48115000 </v>
   <v>       0.02777778       0.02777778       0.51885000 </v>
   <v>       0.08333333       0.08333333       0.51885000 </v>
   <v>       0.02777778       0.08333333       0.55655000 </v>
   <v>       0.08333333       0.02777778       0.55655000 </v>
   <v>       0.02777778       0.02777778       0.59425000 </v>
   <v>       0.08333333       0.08333333       0.59425000 </v>
   <v>       0.02777778       0.13888889       0.36805000 </v>
   <v>       0.08333333       0.19444444       0.36805000 </v>
   <v>       0.02777778       0.19444444       0.40575000 </v>
   <v>       0.08333333       0.13888889       0.40575000 </v>
   <v>       0.02777778       0.13888889       0.44345000 </v>
   <v>       0.08333333       0.19444444       0.44345000 </v>
   <v>       0.02777778       0.19444444       0.48115000 </v>
   <v>       0.08333333       0.13888889       0.48115000 </v>
   <v>       0.02777778       0.13888889       0.51885000 </v>
   <v>       0.08333333       0.19444444       0.51885000 </v>
   <v>       0.02777778       0.19444444       0.55655000 </v>
   <v>       0.08333333       0.13888889       0.55655000 </v>
   <v>       0.02777778       0.13888889       0.59425000 </v>
   <v>       0.08333333       0.19444444       0.59425000 </v>
   <v>       0.02777778       0.25000000       0.36805000 </v>
   <v>       0.08333333       0.30555556       0.36805000 </v>
   <v>       0.02777778       0.30555556       0.40575000 </v>
   <v>       0.08333333       0.25000000       0.40575000 </v>
   <v>       0.02777778       0.25000000       0.44345000 </v>
   <v>       0.08333333       0.30555556       0.44345000 </v>
   <v>       0.02777778       0.30555556       0.48115000 </v>
   <v>       0.08333333       0.25000000       0.48115000 </v>
   <v>       0.02777778       0.25000000       0.51885000 </v>
   <v>       0.08333333       0.30555556       0.51885000 </v>
   <v>       0.02777778       0.30555556       0.55655000 </v>
   <v>       0.08333333       0.25000000       0.55655000 </v>
   <v>       0.02777778       0.25000000       0.59425000 </v>
   <v>       0.08333333       0.30555556       0.59425000 </v>
   <v>       0.02777778       0.36111111       0.36805000 </v>
   <v>       0.08333333       0.41666667       0.36805000 </v>
   <v>       0.02777778       0.41666667       0.40575000 </v>
   <v>       0.08333333       0.36111111       0.40575000 </v>
   <v>       0.02777778       0.36111111       0.44345000 </v>
   <v>       0.08333333       0.41666667       0.44345000 </v>
   <v>       0.02777778       0.41666667       0.48115000 </v>
   <v>       0.08333333       0.36111111       0.48115000 </v>
   <v>       0.02777778       0.36111111       0.51885000 </v>
   <v>       0.08333333       0.41666667       0.51885000 </v>
   <v>       0.02777778       0.41666667       0.55655000 </v>
   <v>       0.08333333       0.36111111       0.55655000 </v>
   <v>       0.02777778       0.36111111       0.59425000 </v>
   <v>       0.08333333       0.41666667       0.59425000 </v>
   <v>       0.02777778       0.47222222       0.36805000 </v>
   <v>       0.08333333       0.52777778       0.36805000 </v>
   <v>       0.02777778       0.52777778       0.40575000 </v>
   <v>       0.08333333       0.47222222       0.40575000 </v>
   <v>       0.02777778       0.47222222       0.44345000 </v>
   <v>       0.08333333       0.52777778       0.44345000 </v>
   <v>       0.02777778       0.52777778       0.48115000 </v>
   <v>       0.08333333       0.47222222       0.48115000 </v>
   <v>       0.02777778       0.47222222       0.51885000 </v>
   <v>       0.08333333       0.52777778       0.51885000 </v>
   <v>       0.02777778       0.52777778       0.55655000 </v>
   <v>       0.08333333       0.47222222       0.55655000 </v>
   <v>       0.02777778       0.47222222       0.59425000 </v>
   <v>       0.08333333       0.52777778       0.59425000 </v>
   <v>       0.02777778       0.58333333       0.36805000 </v>
   <v>       0.08333333       0.63888889       0.36805000 </v>
   <v>       0.02777778       0.63888889       0.40575000 </v>
   <v>       0.08333333       0.58333333       0.40575000 </v>
   <v>       0.02777778       0.58333333       0.44345000 </v>
   <v>       0.08333333       0.63888889       0.44345000 </v>
   <v>       0.02777778       0.63888889       0.48115000 </v>
   <v>       0.08333333       0.58333333       0.48115000 </v>
   <v>       0.02777778       0.58333333       0.51885000 </v>
   <v>       0.08333333       0.63888889       0.51885000 </v>
   <v>       0.02777778       0.63888889       0.55655000 </v>
   <v>       0.08333333       0.58333333       0.55655000 </v>
   <v>       0.02777778       0.58333333       0.59425000 </v>
   <v>       0.08333333       0.63888889       0.59425000 </v>
   <v>       0.02777778       0.69444444       0.36805000 </v>
   <v>       0.08333333       0.75000000       0.36805000 </v>
   <v>       0.02777778       0.75000000       0.40575000 </v>
   <v>       0.08333333       0.69444444       0.40575000 </v>
   <v>       0.02777778       0.69444444       0.44345000 </v>
   <v>       0.08333333       0.75000000       0.44345000 </v>
   <v>       0.02777778       0.75000000       0.48115000 </v>
   <v>       0.08333333       0.69444444       0.48115000 </v>
   <v>       0.02777778       0.69444444       0.51885000 </v>
   <v>       0.08333333       0.75000000       0.51885000 </v>
   <v>       0.02777778       0.75000000       0.55655000 </v>
   <v>       0.08333333       0.69444444       0.55655000 </v>
   <v>       0.02777778       0.69444444       0.59425000 </v>
   <v>       0.08333333       0.75000000       0.59425000 </v>
   <v>       0.02777778       0.80555556       0.36805000 </v>
   <v>       0.08333333       0.86111111       0.36805000 </v>
   <v>       0.02777778       0.86111111       0.40575000 </v>
   <v>       0.08333333       0.80555556       0.40575000 </v>
   <v>       0.02777778       0.80555556       0.44345000 </v>
   <v>       0.08333333       0.86111111       0.44345000 </v>
   <v>       0.02777778       0.86111111       0.48115000 </v>
   <v>       0.08333333       0.80555556       0.48115000 </v>
   <v>       0.02777778       0.80555556       0.51885000 </v>
   <v>       0.08333333       0.86111111       0.51885000 </v>
   <v>       0.02777778       0.86111111       0.55655000 </v>
   <v>       0.08333333       0.80555556       0.55655000 </v>
   <v>       0.02777778       0.80555556       0.59425000 </v>
   <v>       0.08333333       0.86111111       0.59425000 </v>
   <v>       0.02777778       0.91666667       0.36805000 </v>
   <v>       0.08333333       0.97222222       0.36805000 </v>
   <v>       0.02777778       0.97222222       0.40575000 </v>
   <v>       0.08333333       0.91666667       0.40575000 </v>
   <v>       0.02777778       0.91666667       0.44345000 </v>
   <v>       0.08333333       0.97222222       0.44345000 </v>
   <v>       0.02777778       0.97222222       0.48115000 </v>
   <v>       0.08333333       0.91666667       0.48115000 </v>
   <v>       0.02777778       0.91666667       0.51885000 </v>
   <v>       0.08333333       0.97222222       0.51885000 </v>
   <v>       0.02777778       0.97222222       0.55655000 </v>
   <v>       0.08333333       0.91666667       0.55655000 </v>
   <v>       0.02777778       0.91666667       0.59425000 </v>
   <v>       0.08333333       0.97222222       0.59425000 </v>
   <v>       0.13888889       0.02777778       0.36805000 </v>
   <v>       0.19444444       0.08333333       0.36805000 </v>
   <v>       0.13888889       0.08333333       0.40575000 </v>
   <v>       0.19444444       0.02777778       0.40575000 </v>
   <v>       0.13888889       0.02777778       0.44345000 </v>
   <v>       0.19444444       0.08333333       0.44345000 </v>
   <v>       0.13888889       0.08333333       0.48115000 </v>
   <v>       0.19444444       0.02777778       0.48115000 </v>
   <v>       0.13888889       0.02777778       0.51885000 </v>
   <v>       0.19444444       0.08333333       0.51885000 </v>
   <v>       0.13888889       0.08333333       0.55655000 </v>
   <v>       0.19444444       0.02777778       0.55655000 </v>
   <v>       0.13888889       0.02777778       0.59425000 </v>
   <v>       0.19444444       0.08333333       0.59425000 </v>
   <v>       0.13888889       0.13888889       0.36805000 </v>
   <v>       0.19444444       0.19444444       0.36805000 </v>
   <v>       0.13888889       0.19444444       0.40575000 </v>
   <v>       0.19444444       0.13888889       0.40575000 </v>
   <v>       0.13888889       0.13888889       0.44345000 </v>
   <v>       0.19444444       0.19444444       0.44345000 </v>
   <v>       0.13888889       0.19444444       0.48115000 </v>
   <v>       0.19444444       0.13888889       0.48115000 </v>
   <v>       0.13888889       0.13888889       0.51885000 </v>
   <v>       0.19444444       0.19444444       0.51885000 </v>
   <v>       0.13888889       0.19444444       0.55655000 </v>
   <v>       0.19444444       0.13888889       0.55655000 </v>
   <v>       0.13888889       0.13888889       0.59425000 </v>
   <v>       0.19444444       0.19444444       0.59425000 </v>
   <v>       0.13888889       0.25000000       0.36805000 </v>
   <v>       0.19444444       0.30555556       0.36805000 </v>
   <v>       0.13888889       0.30555556       0.40575000 </v>
   <v>       0.19444444       0.25000000       0.40575000 </v>
   <v>       0.13888889       0.25000000       0.44345000 </v>
   <v>       0.19444444       0.30555556       0.44345000 </v>
   <v>       0.13888889       0.30555556       0.48115000 </v>
   <v>       0.19444444       0.25000000       0.48115000 </v>
   <v>       0.13888889       0.25000000       0.51885000 </v>
   <v>       0.19444444       0.30555556       0.51885000 </v>
   <v>       0.13888889       0.30555556       0.55655000 </v>
   <v>       0.19444444       0.25000000       0.55655000 </v>
   <v>       0.13888889       0.25000000       0.59425000 </v>
   <v>       0.19444444       0.30555556       0.59425000 </v>
   <v>       0.13888889       0.36111111       0.36805000 </v>
   <v>       0.19444444       0.41666667       0.36805000 </v>
   <v>       0.13888889       0.41666667       0.40575000 </v>
   <v>       0.19444444       0.36111111       0.40575000 </v>
   <v>       0.13888889       0.36111111       0.44345000 </v>
   <v>       0.19444444       0.41666667       0.44345000 </v>
   <v>       0.13888889       0.41666667       0.48115000 </v>
   <v>       0.19444444       0.36111111       0.48115000 </v>
   <v>       0.13888889       0.36111111       0.51885000 </v>
   <v>       0.19444444       0.41666667       0.51885000 </v>
   <v>       0.13888889       0.41666667       0.55655000 </v>
   <v>       0.19444444       0.36111111       0.55655000 </v>
   <v>       0.13888889       0.36111111       0.59425000 </v>
   <v>       0.19444444       0.41666667       0.59425000 </v>
   <v>       0.13888889       0.47222222       0.36805000 </v>
   <v>       0.19444444       0.52777778       0.36805000 </v>
   <v>       0.13888889       0.52777778       0.40575000 </v>
   <v>       0.19444444       0.47222222       0.40575000 </v>
   <v>       0.13888889       0.47222222       0.44345000 </v>
   <v>       0.19444444       0.52777778       0.44345000 </v>
   <v>       0.13888889       0.52777778       0.48115000 </v>
   <v>       0.19444444       0.47222222       0.48115000 </v>
   <v>       0.13888889       0.47222222       0.51885000 </v>
   <v>       0.19444444       0.52777778       0.51885000 </v>
   <v>       0.13888889       0.52777778       0.55655000 </v>
   <v>       0.19444444       0.47222222       0.55655000 </v>
   <v>       0.13888889       0.47222222       0.59425000 </v>
   <v>       0.19444444       0.52777778       0.59425000 </v>
   <v>       0.13888889       0.58333333       0.36805000 </v>
   <v>       0.19444444       0.63888889       0.36805000 </v>
   <v>       0.13888889       0.63888889       0.40575000 </v>
   <v>       0.19444444       0.58333333       0.40575000 </v>
   <v>       0.13888889       0.58333333       0.44345000 </v>
   <v>       0.19444444       0.63888889       0.44345000 </v>
   <v>       0.13888889       0.63888889       0.48115000 </v>
   <v>       0.19444444       0.58333333       0.48115000 </v>
   <v>       0.13888889       0.58333333       0.51885000 </v>
   <v>       0.19444444       0.63888889       0.51885000 </v>
   <v>       0.13888889       0.63888889       0.55655000 </v>
   <v>       0.19444444       0.58333333       0.55655000 </v>
   <v>       0.13888889       0.58333333       0.59425000 </v>
   <v>       0.19444444       0.63888889       0.59425000 </v>
   <v>       0.13888889       0.69444444       0.36805000 </v>
   <v>       0.19444444       0.75000000       0.36805000 </v>
   <v>       0.13888889       0.75000000       0.40575000 </v>
   <v>       0.19444444       0.69444444       0.40575000 </v>
   <v>       0.13888889       0.69444444       0.44345000 </v>
   <v>       0.19444444       0.75000000       0.44345000 </v>
   <v>       0.13888889       0.75000000       0.48115000 </v>
   <v>       0.19444444       0.69444444       0.48115000 </v>
   <v>       0.13888889       0.69444444       0.51885000 </v>
   <v>       0.19444444       0.75000000       0.51885000 </v>
   <v>       0.13888889       0.75000000       0.55655000 </v>
   <v>       0.19444444       0.69444444       0.55655000 </v>
   <v>       0.13888889       0.69444444       0.59425000 </v>
   <v>       0.19444444       0.75000000       0.59425000 </v>
   <v>       0.13888889       0.80555556       0.36805000 </v>
   <v>       0.19444444       0.86111111       0.36805000 </v>
   <v>       0.13888889       0.86111111       0.40575000 </v>
   <v>       0.19444444       0.80555556       0.40575000 </v>
   <v>       0.13888889       0.80555556       0.44345000 </v>
   <v>       0.19444444       0.86111111       0.44345000 </v>
   <v>       0.13888889       0.86111111       0.48115000 </v>
   <v>       0.19444444       0.80555556       0.48115000 </v>
   <v>       0.13888889       0.80555556       0.51885000 </v>
   <v>       0.19444444       0.86111111       0.51885000 </v>
   <v>       0.13888889       0.86111111       0.55655000 </v>
   <v>       0.19444444       0.80555556       0.55655000 </v>
   <v>       0.13888889       0.80555556       0.59425000 </v>
   <v>       0.19444444       0.86111111       0.59425000 </v>
   <v>       0.13888889       0.91666667       0.36805000 </v>
   <v>       0.19444444       0.97222222       0.36805000 </v>
   <v>       0.13888889       0.97222222       0.40575000 </v>
   <v>       0.19444444       0.91666667       0.40575000 </v>
   <v>       0.13888889       0.91666667       0.44345000 </v>
   <v>       0.19444444       0.97222222       0.44345000 </v>
   <v>       0.13888889       0.97222222       0.48115000 </v>
   <v>       0.19444444       0.91666667       0.48115000 </v>
   <v>       0.13888889       0.91666667       0.51885000 </v>
   <v>       0.19444444       0.97222222       0.51885000 </v>
   <v>       0.13888889       0.97222222       0.55655000 </v>
   <v>       0.19444444       0.91666667       0.55655000 </v>
   <v>       0.13888889       0.91666667       0.59425000 </v>
   <v>       0.19444444       0.97222222       0.59425000 </v>
   <v>       0.25000000       0.02777778       0.36805000 </v>
   <v>       0.30555556       0.08333333       0.36805000 </v>
   <v>       0.25000000       0.08333333       0.40575000 </v>
   <v>       0.30555556       0.02777778       0.40575000 </v>
   <v>       0.25000000       0.02777778       0.44345000 </v>
   <v>       0.30555556       0.08333333       0.44345000 </v>
   <v>       0.25000000       0.08333333       0.48115000 </v>
   <v>       0.30555556       0.02777778       0.48115000 </v>
   <v>       0.25000000       0.02777778       0.51885000 </v>
   <v>       0.30555556       0.08333333       0.51885000 </v>
   <v>       0.25000000       0.08333333       0.55655000 </v>
   <v>       0.30555556       0.02777778       0.55655000 </v>
   <v>       0.25000000       0.02777778       0.59425000 </v>
   <v>       0.30555556       0.08333333       0.59425000 </v>
   <v>       0.25000000       0.13888889       0.36805000 </v>
   <v>       0.30555556       0.19444444       0.36805000 </v>
   <v>       0.25000000       0.19444444       0.40575000 </v>
   <v>       0.30555556       0.13888889       0.40575000 </v>
   <v>       0.25000000       0.13888889       0.44345000 </v>
   <v>       0.30555556       0.19444444       0.44345000 </v>
   <v>       0.25000000       0.19444444       0.48115000 </v>
   <v>       0.30555556       0.13888889       0.48115000 </v>
   <v>       0.25000000       0.13888889       0.51885000 </v>
   <v>       0.30555556       0.19444444       0.51885000 </v>
   <v>       0.25000000       0.19444444       0.55655000 </v>
   <v>       0.30555556       0.13888889       0.55655000 </v>
   <v>       0.25000000       0.13888889       0.59425000 </v>
   <v>       0.30555556       0.19444444       0.59425000 </v>
   <v>       0.25000000       0.25000000       0.36805000 </v>
   <v>       0.30555556       0.30555556       0.36805000 </v>
   <v>       0.25000000       0.30555556       0.40575000 </v>
   <v>       0.30555556       0.25000000       0.40575000 </v>
   <v>       0.25000000       0.25000000       0.44345000 </v>
   <v>       0.30555556       0.30555556       0.44345000 </v>
   <v>       0.25000000       0.30555556       0.48115000 </v>
   <v>       0.30555556       0.25000000       0.48115000 </v>
   <v>       0.25000000       0.25000000       0.51885000 </v>
   <v>       0.30555556       0.30555556       0.51885000 </v>
   <v>       0.25000000       0.30555556       0.55655000 </v>
   <v>       0.30555556       0.25000000       0.55655000 </v>
   <v>       0.25000000       0.25000000       0.59425000 </v>
   <v>       0.30555556       0.30555556       0.59425000 </v>
   <v>       0.25000000       0.36111111       0.36805000 </v>
   <v>       0.30555556       0.41666667       0.36805000 </v>
   <v>       0.25000000       0.41666667       0.40575000 </v>
   <v>       0.30555556       0.36111111       0.40575000 </v>
   <v>       0.25000000       0.36111111       0.44345000 </v>
   <v>       0.30555556       0.41666667       0.44345000 </v>
   <v>       0.25000000       0.41666667       0.48115000 </v>
   <v>       0.30555556       0.36111111       0.48115000 </v>
   <v>       0.25000000       0.36111111       0.51885000 </v>
   <v>       0.30555556       0.41666667       0.51885000 </v>
   <v>       0.25000000       0.41666667       0.55655000 </v>
   <v>       0.30555556       0.36111111       0.55655000 </v>
   <v>       0.25000000       0.36111111       0.59425000 </v>
   <v>       0.30555556       0.41666667       0.59425000 </v>
   <v>       0.25000000       0.47222222       0.36805000 </v>
   <v>       0.30555556       0.52777778       0.36805000 </v>
   <v>       0.25000000       0.52777778       0.40575000 </v>
   <v>       0.30555556       0.47222222       0.40575000 </v>
   <v>       0.25000000       0.47222222       0.44345000 </v>
   <v>       0.30555556       0.52777778       0.44345000 </v>
   <v>       0.25000000       0.52777778       0.48115000 </v>
   <v>       0.30555556       0.47222222       0.48115000 </v>
   <v>       0.25000000       0.47222222       0.51885000 </v>
   <v>       0.30555556       0.52777778       0.51885000 </v>
   <v>       0.25000000       0.52777778       0.55655000 </v>
   <v>       0.30555556       0.47222222       0.55655000 </v>
   <v>       0.25000000       0.47222222       0.59425000 </v>
   <v>       0.30555556       0.52777778       0.59425000 </v>
   <v>       0.25000000       0.58333333       0.36805000 </v>
   <v>       0.30555556       0.63888889       0.36805000 </v>
   <v>       0.25000000       0.63888889       0.40575000 </v>
   <v>       0.30555556       0.58333333       0.40575000 </v>
   <v>       0.25000000       0.58333333       0.44345000 </v>
   <v>       0.30555556       0.63888889       0.44345000 </v>
   <v>       0.25000000       0.63888889       0.48115000 </v>
   <v>       0.30555556       0.58333333       0.48115000 </v>
   <v>       0.25000000       0.58333333       0.51885000 </v>
   <v>       0.30555556       0.63888889       0.51885000 </v>
   <v>       0.25000000       0.63888889       0.55655000 </v>
   <v>       0.30555556       0.58333333       0.55655000 </v>
   <v>       0.25000000       0.58333333       0.59425000 </v>
   <v>       0.30555556       0.63888889       0.59425000 </v>
   <v>       0.25000000       0.69444444       0.36805000 </v>
   <v>       0.30555556       0.75000000       0.36805000 </v>
   <v>       0.25000000       0.75000000       0.40575000 </v>
   <v>       0.30555556       0.69444444       0.40575000 </v>
   <v>       0.25000000       0.69444444       0.44345000 </v>
   <v>       0.30555556       0.75000000       0.44345000 </v>
   <v>       0.25000000       0.75000000       0.48115000 </v>
   <v>       0.30555556       0.69444444       0.48115000 </v>
   <v>       0.25000000       0.69444444       0.51885000 </v>
   <v>       0.30555556       0.75000000       0.51885000 </v>
   <v>       0.25000000       0.75000000       0.55655000 </v>
   <v>       0.30555556       0.69444444       0.55655000 </v>
   <v>       0.25000000       0.69444444       0.59425000 </v>
   <v>       0.30555556       0.75000000       0.59425000 </v>
   <v>       0.25000000       0.80555556       0.36805000 </v>
   <v>       0.30555556       0.86111111       0.36805000 </v>
   <v>       0.25000000       0.86111111       0.40575000 </v>
   <v>       0.30555556       0.80555556       0.40575000 </v>
   <v>       0.25000000       0.80555556       0.44345000 </v>
   <v>       0.30555556       0.86111111       0.44345000 </v>
   <v>       0.25000000       0.86111111       0.48115000 </v>
   <v>       0.30555556       0.80555556       0.48115000 </v>
   <v>       0.25000000       0.80555556       0.51885000 </v>
   <v>       0.30555556       0.86111111       0.51885000 </v>
   <v>       0.25000000       0.86111111       0.55655000 </v>
   <v>       0.30555556       0.80555556       0.55655000 </v>
   <v>       0.25000000       0.80555556       0.59425000 </v>
   <v>       0.30555556       0.86111111       0.59425000 </v>
   <v>       0.25000000       0.91666667       0.36805000 </v>
   <v>       0.30555556       0.97222222       0.36805000 </v>
   <v>       0.25000000       0.97222222       0.40575000 </v>
   <v>       0.30555556       0.91666667       0.40575000 </v>
   <v>       0.25000000       0.91666667       0.44345000 </v>
   <v>       0.30555556       0.97222222       0.44345000 </v>
   <v>       0.25000000       0.97222222       0.48115000 </v>
   <v>       0.30555556       0.91666667       0.48115000 </v>
   <v>       0.25000000       0.91666667       0.51885000 </v>
   <v>       0.30555556       0.97222222       0.51885000 </v>
   <v>       0.25000000       0.97222222       0.55655000 </v>
   <v>       0.30555556       0.91666667       0.55655000 </v>
   <v>       0.25000000       0.91666667       0.59425000 </v>
   <v>       0.30555556       0.97222222       0.59425000 </v>
   <v>       0.36111111       0.02777778       0.36805000 </v>
   <v>       0.41666667       0.08333333       0.36805000 </v>
   <v>       0.36111111       0.08333333       0.40575000 </v>
   <v>       0.41666667       0.02777778       0.40575000 </v>
   <v>       0.36111111       0.02777778       0.44345000 </v>
   <v>       0.41666667       0.08333333       0.44345000 </v>
   <v>       0.36111111       0.08333333       0.48115000 </v>
   <v>       0.41666667       0.02777778       0.48115000 </v>
   <v>       0.36111111       0.02777778       0.51885000 </v>
   <v>       0.41666667       0.08333333       0.51885000 </v>
   <v>       0.36111111       0.08333333       0.55655000 </v>
   <v>       0.41666667       0.02777778       0.55655000 </v>
   <v>       0.36111111       0.02777778       0.59425000 </v>
   <v>       0.41666667       0.08333333       0.59425000 </v>
   <v>       0.36111111       0.13888889       0.36805000 </v>
   <v>       0.41666667       0.19444444       0.36805000 </v>
   <v>       0.36111111       0.19444444       0.40575000 </v>
   <v>       0.41666667       0.13888889       0.40575000 </v>
   <v>       0.36111111       0.13888889       0.44345000 </v>
   <v>       0.41666667       0.19444444       0.44345000 </v>
   <v>       0.36111111       0.19444444       0.48115000 </v>
   <v>       0.41666667       0.13888889       0.48115000 </v>
   <v>       0.36111111       0.13888889       0.51885000 </v>
   <v>       0.41666667       0.19444444       0.51885000 </v>
   <v>       0.36111111       0.19444444       0.55655000 </v>
   <v>       0.41666667       0.13888889       0.55655000 </v>
   <v>       0.36111111       0.13888889       0.59425000 </v>
   <v>       0.41666667       0.19444444       0.59425000 </v>
   <v>       0.36111111       0.25000000       0.36805000 </v>
   <v>       0.41666667       0.30555556       0.36805000 </v>
   <v>       0.36111111       0.30555556       0.40575000 </v>
   <v>       0.41666667       0.25000000       0.40575000 </v>
   <v>       0.36111111       0.25000000       0.44345000 </v>
   <v>       0.41666667       0.30555556       0.44345000 </v>
   <v>       0.36111111       0.30555556       0.48115000 </v>
   <v>       0.41666667       0.25000000       0.48115000 </v>
   <v>       0.36111111       0.25000000       0.51885000 </v>
   <v>       0.41666667       0.30555556       0.51885000 </v>
   <v>       0.36111111       0.30555556       0.55655000 </v>
   <v>       0.41666667       0.25000000       0.55655000 </v>
   <v>       0.36111111       0.25000000       0.59425000 </v>
   <v>       0.41666667       0.30555556       0.59425000 </v>
   <v>       0.36111111       0.36111111       0.36805000 </v>
   <v>       0.41666667       0.41666667       0.36805000 </v>
   <v>       0.36111111       0.41666667       0.40575000 </v>
   <v>       0.41666667       0.36111111       0.40575000 </v>
   <v>       0.36111111       0.36111111       0.44345000 </v>
   <v>       0.41666667       0.41666667       0.44345000 </v>
   <v>       0.36111111       0.41666667       0.48115000 </v>
   <v>       0.41666667       0.36111111       0.48115000 </v>
   <v>       0.36111111       0.36111111       0.51885000 </v>
   <v>       0.41666667       0.41666667       0.51885000 </v>
   <v>       0.36111111       0.41666667       0.55655000 </v>
   <v>       0.41666667       0.36111111       0.55655000 </v>
   <v>       0.36111111       0.36111111       0.59425000 </v>
   <v>       0.41666667       0.41666667       0.59425000 </v>
   <v>       0.36111111       0.47222222       0.36805000 </v>
   <v>       0.41666667       0.52777778       0.36805000 </v>
   <v>       0.36111111       0.52777778       0.40575000 </v>
   <v>       0.41666667       0.47222222       0.40575000 </v>
   <v>       0.36111111       0.47222222       0.44345000 </v>
   <v>       0.41666667       0.52777778       0.44345000 </v>
   <v>       0.36111111       0.52777778       0.48115000 </v>
   <v>       0.41666667       0.47222222       0.48115000 </v>
   <v>       0.36111111       0.47222222       0.51885000 </v>
   <v>       0.41666667       0.52777778       0.51885000 </v>
   <v>       0.36111111       0.52777778       0.55655000 </v>
   <v>       0.41666667       0.47222222       0.55655000 </v>
   <v>       0.36111111       0.47222222       0.59425000 </v>
   <v>       0.41666667       0.52777778       0.59425000 </v>
   <v>       0.36111111       0.58333333       0.36805000 </v>
   <v>       0.41666667       0.63888889       0.36805000 </v>
   <v>       0.36111111       0.63888889       0.40575000 </v>
   <v>       0.41666667       0.58333333       0.40575000 </v>
   <v>       0.36111111       0.58333333       0.44345000 </v>
   <v>       0.41666667       0.63888889       0.44345000 </v>
   <v>       0.36111111       0.63888889       0.48115000 </v>
   <v>       0.41666667       0.58333333       0.48115000 </v>
   <v>       0.36111111       0.58333333       0.51885000 </v>
   <v>       0.41666667       0.63888889       0.51885000 </v>
   <v>       0.36111111       0.63888889       0.55655000 </v>
   <v>       0.41666667       0.58333333       0.55655000 </v>
   <v>       0.36111111       0.58333333       0.59425000 </v>
   <v>       0.41666667       0.63888889       0.59425000 </v>
   <v>       0.36111111       0.69444444       0.36805000 </v>
   <v>       0.41666667       0.75000000       0.36805000 </v>
   <v>       0.36111111       0.75000000       0.40575000 </v>
   <v>       0.41666667       0.69444444       0.40575000 </v>
   <v>       0.36111111       0.69444444       0.44345000 </v>
   <v>       0.41666667       0.75000000       0.44345000 </v>
   <v>       0.36111111       0.75000000       0.48115000 </v>
   <v>       0.41666667       0.69444444       0.48115000 </v>
   <v>       0.36111111       0.69444444       0.51885000 </v>
   <v>       0.41666667       0.75000000       0.51885000 </v>
   <v>       0.36111111       0.75000000       0.55655000 </v>
   <v>       0.41666667       0.69444444       0.55655000 </v>
   <v>       0.36111111       0.69444444       0.59425000 </v>
   <v>       0.41666667       0.75000000       0.59425000 </v>
   <v>       0.36111111       0.80555556       0.36805000 </v>
   <v>       0.41666667       0.86111111       0.36805000 </v>
   <v>       0.36111111       0.86111111       0.40575000 </v>
   <v>       0.41666667       0.80555556       0.40575000 </v>
   <v>       0.36111111       0.80555556       0.44345000 </v>
   <v>       0.41666667       0.86111111       0.44345000 </v>
   <v>       0.36111111       0.86111111       0.48115000 </v>
   <v>       0.41666667       0.80555556       0.48115000 </v>
   <v>       0.36111111       0.80555556       0.51885000 </v>
   <v>       0.41666667       0.86111111       0.51885000 </v>
   <v>       0.36111111       0.86111111       0.55655000 </v>
   <v>       0.41666667       0.80555556       0.55655000 </v>
   <v>       0.36111111       0.80555556       0.59425000 </v>
   <v>       0.41666667       0.86111111       0.59425000 </v>
   <v>       0.36111111       0.91666667       0.36805000 </v>
   <v>       0.41666667       0.97222222       0.36805000 </v>
   <v>       0.36111111       0.97222222       0.40575000 </v>
   <v>       0.41666667       0.91666667       0.40575000 </v>
   <v>       0.36111111       0.91666667       0.44345000 </v>
   <v>       0.41666667       0.97222222       0.44345000 </v>
   <v>       0.36111111       0.97222222       0.48115000 </v>
   <v>       0.41666667       0.91666667       0.48115000 </v>
   <v>       0.36111111       0.91666667       0.51885000 </v>
   <v>       0.41666667       0.97222222       0.51885000 </v>
   <v>       0.36111111       0.97222222       0.55655000 </v>
   <v>       0.41666667       0.91666667       0.55655000 </v>
   <v>       0.36111111       0.91666667       0.59425000 </v>
   <v>       0.41666667       0.97222222       0.59425000 </v>
   <v>       0.47222222       0.02777778       0.36805000 </v>
   <v>       0.52777778       0.08333333       0.36805000 </v>
   <v>       0.47222222       0.08333333       0.40575000 </v>
   <v>       0.52777778       0.02777778       0.40575000 </v>
   <v>       0.47222222       0.02777778       0.44345000 </v>
   <v>       0.52777778       0.08333333       0.44345000 </v>
   <v>       0.47222222       0.08333333       0.48115000 </v>
   <v>       0.52777778       0.02777778       0.48115000 </v>
   <v>       0.47222222       0.02777778       0.51885000 </v>
   <v>       0.52777778       0.08333333       0.51885000 </v>
   <v>       0.47222222       0.08333333       0.55655000 </v>
   <v>       0.52777778       0.02777778       0.55655000 </v>
   <v>       0.47222222       0.02777778       0.59425000 </v>
   <v>       0.52777778       0.08333333       0.59425000 </v>
   <v>       0.47222222       0.13888889       0.36805000 </v>
   <v>       0.52777778       0.19444444       0.36805000 </v>
   <v>       0.47222222       0.19444444       0.40575000 </v>
   <v>       0.52777778       0.13888889       0.40575000 </v>
   <v>       0.47222222       0.13888889       0.44345000 </v>
   <v>       0.52777778       0.19444444       0.44345000 </v>
   <v>       0.47222222       0.19444444       0.48115000 </v>
   <v>       0.52777778       0.13888889       0.48115000 </v>
   <v>       0.47222222       0.13888889       0.51885000 </v>
   <v>       0.52777778       0.19444444       0.51885000 </v>
   <v>       0.47222222       0.19444444       0.55655000 </v>
   <v>       0.52777778       0.13888889       0.55655000 </v>
   <v>       0.47222222       0.13888889       0.59425000 </v>
   <v>       0.52777778       0.19444444       0.59425000 </v>
   <v>       0.47222222       0.25000000       0.36805000 </v>
   <v>       0.52777778       0.30555556       0.36805000 </v>
   <v>       0.47222222       0.30555556       0.40575000 </v>
   <v>       0.52777778       0.25000000       0.40575000 </v>
   <v>       0.47222222       0.25000000       0.44345000 </v>
   <v>       0.52777778       0.30555556       0.44345000 </v>
   <v>       0.47222222       0.30555556       0.48115000 </v>
   <v>       0.52777778       0.25000000       0.48115000 </v>
   <v>       0.47222222       0.25000000       0.51885000 </v>
   <v>       0.52777778       0.30555556       0.51885000 </v>
   <v>       0.47222222       0.30555556       0.55655000 </v>
   <v>       0.52777778       0.25000000       0.55655000 </v>
   <v>       0.47222222       0.25000000       0.59425000 </v>
   <v>       0.52777778       0.30555556       0.59425000 </v>
   <v>       0.47222222       0.36111111       0.36805000 </v>
   <v>       0.52777778       0.41666667       0.36805000 </v>
   <v>       0.47222222       0.41666667       0.40575000 </v>
   <v>       0.52777778       0.36111111       0.40575000 </v>
   <v>       0.47222222       0.36111111       0.44345000 </v>
   <v>       0.52777778       0.41666667       0.44345000 </v>
   <v>       0.47222222       0.41666667       0.48115000 </v>
   <v>       0.52777778       0.36111111       0.48115000 </v>
   <v>       0.47222222       0.36111111       0.51885000 </v>
   <v>       0.52777778       0.41666667       0.51885000 </v>
   <v>       0.47222222       0.41666667       0.55655000 </v>
   <v>       0.52777778       0.36111111       0.55655000 </v>
   <v>       0.47222222       0.36111111       0.59425000 </v>
   <v>       0.52777778       0.41666667       0.59425000 </v>
   <v>       0.47222222       0.47222222       0.36805000 </v>
   <v>       0.52777778       0.52777778       0.36805000 </v>
   <v>       0.47222222       0.52777778       0.40575000 </v>
   <v>       0.52777778       0.47222222       0.40575000 </v>
   <v>       0.47222222       0.47222222       0.44345000 </v>
   <v>       0.52777778       0.52777778       0.44345000 </v>
   <v>       0.47222222       0.52777778       0.48115000 </v>
   <v>       0.52777778       0.47222222       0.48115000 </v>
   <v>       0.47222222       0.47222222       0.51885000 </v>
   <v>       0.52777778       0.52777778       0.51885000 </v>
   <v>       0.47222222       0.52777778       0.55655000 </v>
   <v>       0.52777778       0.47222222       0.55655000 </v>
   <v>       0.47222222       0.47222222       0.59425000 </v>
   <v>       0.52777778       0.52777778       0.59425000 </v>
   <v>       0.47222222       0.58333333       0.36805000 </v>
   <v>       0.52777778       0.63888889       0.36805000 </v>
   <v>       0.47222222       0.63888889       0.40575000 </v>
   <v>       0.52777778       0.58333333       0.40575000 </v>
   <v>       0.47222222       0.58333333       0.44345000 </v>
   <v>       0.52777778       0.63888889       0.44345000 </v>
   <v>       0.47222222       0.63888889       0.48115000 </v>
   <v>       0.52777778       0.58333333       0.48115000 </v>
   <v>       0.47222222       0.58333333       0.51885000 </v>
   <v>       0.52777778       0.63888889       0.51885000 </v>
   <v>       0.47222222       0.63888889       0.55655000 </v>
   <v>       0.52777778       0.58333333       0.55655000 </v>
   <v>       0.47222222       0.58333333       0.59425000 </v>
   <v>       0.52777778       0.63888889       0.59425000 </v>
   <v>       0.47222222       0.69444444       0.36805000 </v>
   <v>       0.52777778       0.75000000       0.36805000 </v>
   <v>       0.47222222       0.75000000       0.40575000 </v>
   <v>       0.52777778       0.69444444       0.40575000 </v>
   <v>       0.47222222       0.69444444       0.44345000 </v>
   <v>       0.52777778       0.75000000       0.44345000 </v>
   <v>       0.47222222       0.75000000       0.48115000 </v>
   <v>       0.52777778       0.69444444       0.48115000 </v>
   <v>       0.47222222       0.69444444       0.51885000 </v>
   <v>       0.52777778       0.75000000       0.51885000 </v>
   <v>       0.47222222       0.75000000       0.55655000 </v>
   <v>       0.52777778       0.69444444       0.55655000 </v>
   <v>       0.47222222       0.69444444       0.59425000 </v>
   <v>       0.52777778       0.75000000       0.59425000 </v>
   <v>       0.47222222       0.80555556       0.36805000 </v>
   <v>       0.52777778       0.86111111       0.36805000 </v>
   <v>       0.47222222       0.86111111       0.40575000 </v>
   <v>       0.52777778       0.80555556       0.40575000 </v>
   <v>       0.47222222       0.80555556       0.44345000 </v>
   <v>       0.52777778       0.86111111       0.44345000 </v>
   <v>       0.47222222       0.86111111       0.48115000 </v>
   <v>       0.52777778       0.80555556       0.48115000 </v>
   <v>       0.47222222       0.80555556       0.51885000 </v>
   <v>       0.52777778       0.86111111       0.51885000 </v>
   <v>       0.47222222       0.86111111       0.55655000 </v>
   <v>       0.52777778       0.80555556       0.55655000 </v>
   <v>       0.47222222       0.80555556       0.59425000 </v>
   <v>       0.52777778       0.86111111       0.59425000 </v>
   <v>       0.47222222       0.91666667       0.36805000 </v>
   <v>       0.52777778       0.97222222       0.36805000 </v>
   <v>       0.47222222       0.97222222       0.40575000 </v>
   <v>       0.52777778       0.91666667       0.40575000 </v>
   <v>       0.47222222       0.91666667       0.44345000 </v>
   <v>       0.52777778       0.97222222       0.44345000 </v>
   <v>       0.47222222       0.97222222       0.48115000 </v>
   <v>       0.52777778       0.91666667       0.48115000 </v>
   <v>       0.47222222       0.91666667       0.51885000 </v>
   <v>       0.52777778       0.97222222       0.51885000 </v>
   <v>       0.47222222       0.97222222       0.55655000 </v>
   <v>       0.52777778       0.91666667       0.55655000 </v>
   <v>       0.47222222       0.91666667       0.59425000 </v>
   <v>       0.52777778       0.97222222       0.59425000 </v>
   <v>       0.58333333       0.02777778       0.36805000 </v>
   <v>       0.63888889       0.08333333       0.36805000 </v>
   <v>       0.58333333       0.08333333       0.40575000 </v>
   <v>       0.63888889       0.02777778       0.40575000 </v>
   <v>       0.58333333       0.02777778       0.44345000 </v>
   <v>       0.63888889       0.08333333       0.44345000 </v>
   <v>       0.58333333       0.08333333       0.48115000 </v>
   <v>       0.63888889       0.02777778       0.48115000 </v>
   <v>       0.58333333       0.02777778       0.51885000 </v>
   <v>       0.63888889       0.08333333       0.51885000 </v>
   <v>       0.58333333       0.08333333       0.55655000 </v>
   <v>       0.63888889       0.02777778       0.55655000 </v>
   <v>       0.58333333       0.02777778       0.59425000 </v>
   <v>       0.63888889       0.08333333       0.59425000 </v>
   <v>       0.58333333       0.13888889       0.36805000 </v>
   <v>       0.63888889       0.19444444       0.36805000 </v>
   <v>       0.58333333       0.19444444       0.40575000 </v>
   <v>       0.63888889       0.13888889       0.40575000 </v>
   <v>       0.58333333       0.13888889       0.44345000 </v>
   <v>       0.63888889       0.19444444       0.44345000 </v>
   <v>       0.58333333       0.19444444       0.48115000 </v>
   <v>       0.63888889       0.13888889       0.48115000 </v>
   <v>       0.58333333       0.13888889       0.51885000 </v>
   <v>       0.63888889       0.19444444       0.51885000 </v>
   <v>       0.58333333       0.19444444       0.55655000 </v>
   <v>       0.63888889       0.13888889       0.55655000 </v>
   <v>       0.58333333       0.13888889       0.59425000 </v>
   <v>       0.63888889       0.19444444       0.59425000 </v>
   <v>       0.58333333       0.25000000       0.36805000 </v>
   <v>       0.63888889       0.30555556       0.36805000 </v>
   <v>       0.58333333       0.30555556       0.40575000 </v>
   <v>       0.63888889       0.25000000       0.40575000 </v>
   <v>       0.58333333       0.25000000       0.44345000 </v>
   <v>       0.63888889       0.30555556       0.44345000 </v>
   <v>       0.58333333       0.30555556       0.48115000 </v>
   <v>       0.63888889       0.25000000       0.48115000 </v>
   <v>       0.58333333       0.25000000       0.51885000 </v>
   <v>       0.63888889       0.30555556       0.51885000 </v>
   <v>       0.58333333       0.30555556       0.55655000 </v>
   <v>       0.63888889       0.25000000       0.55655000 </v>
   <v>       0.58333333       0.25000000       0.59425000 </v>
   <v>       0.63888889       0.30555556       0.59425000 </v>
   <v>       0.58333333       0.36111111       0.36805000 </v>
   <v>       0.63888889       0.41666667       0.36805000 </v>
   <v>       0.58333333       0.41666667       0.40575000 </v>
   <v>       0.63888889       0.36111111       0.40575000 </v>
   <v>       0.58333333       0.36111111       0.44345000 </v>
   <v>       0.63888889       0.41666667       0.44345000 </v>
   <v>       0.58333333       0.41666667       0.48115000 </v>
   <v>       0.63888889       0.36111111       0.48115000 </v>
   <v>       0.58333333       0.36111111       0.51885000 </v>
   <v>       0.63888889       0.41666667       0.51885000 </v>
   <v>       0.58333333       0.41666667       0.55655000 </v>
   <v>       0.63888889       0.36111111       0.55655000 </v>
   <v>       0.58333333       0.36111111       0.59425000 </v>
   <v>       0.63888889       0.41666667       0.59425000 </v>
   <v>       0.58333333       0.47222222       0.36805000 </v>
   <v>       0.63888889       0.52777778       0.36805000 </v>
   <v>       0.58333333       0.52777778       0.40575000 </v>
   <v>       0.63888889       0.47222222       0.40575000 </v>
   <v>       0.58333333       0.47222222       0.44345000 </v>
   <v>       0.63888889       0.52777778       0.44345000 </v>
   <v>       0.58333333       0.52777778       0.48115000 </v>
   <v>       0.63888889       0.47222222       0.48115000 </v>
   <v>       0.58333333       0.47222222       0.51885000 </v>
   <v>       0.63888889       0.52777778       0.51885000 </v>
   <v>       0.58333333       0.52777778       0.55655000 </v>
   <v>       0.63888889       0.47222222       0.55655000 </v>
   <v>       0.58333333       0.47222222       0.59425000 </v>
   <v>       0.63888889       0.52777778       0.59425000 </v>
   <v>       0.58333333       0.58333333       0.36805000 </v>
   <v>       0.63888889       0.63888889       0.36805000 </v>
   <v>       0.58333333       0.63888889       0.40575000 </v>
   <v>       0.63888889       0.58333333       0.40575000 </v>
   <v>       0.58333333       0.58333333       0.44345000 </v>
   <v>       0.63888889       0.63888889       0.44345000 </v>
   <v>       0.58333333       0.63888889       0.48115000 </v>
   <v>       0.63888889       0.58333333       0.48115000 </v>
   <v>       0.58333333       0.58333333       0.51885000 </v>
   <v>       0.63888889       0.63888889       0.51885000 </v>
   <v>       0.58333333       0.63888889       0.55655000 </v>
   <v>       0.63888889       0.58333333       0.55655000 </v>
   <v>       0.58333333       0.58333333       0.59425000 </v>
   <v>       0.63888889       0.63888889       0.59425000 </v>
   <v>       0.58333333       0.69444444       0.36805000 </v>
   <v>       0.63888889       0.75000000       0.36805000 </v>
   <v>       0.58333333       0.75000000       0.40575000 </v>
   <v>       0.63888889       0.69444444       0.40575000 </v>
   <v>       0.58333333       0.69444444       0.44345000 </v>
   <v>       0.63888889       0.75000000       0.44345000 </v>
   <v>       0.58333333       0.75000000       0.48115000 </v>
   <v>       0.63888889       0.69444444       0.48115000 </v>
   <v>       0.58333333       0.69444444       0.51885000 </v>
   <v>       0.63888889       0.75000000       0.51885000 </v>
   <v>       0.58333333       0.75000000       0.55655000 </v>
   <v>       0.63888889       0.69444444       0.55655000 </v>
   <v>       0.58333333       0.69444444       0.59425000 </v>
   <v>       0.63888889       0.75000000       0.59425000 </v>
   <v>       0.58333333       0.80555556       0.36805000 </v>
   <v>       0.63888889       0.86111111       0.36805000 </v>
   <v>       0.58333333       0.86111111       0.40575000 </v>
   <v>       0.63888889       0.80555556       0.40575000 </v>
   <v>       0.58333333       0.80555556       0.44345000 </v>
   <v>       0.63888889       0.86111111       0.44345000 </v>
   <v>       0.58333333       0.86111111       0.48115000 </v>
   <v>       0.63888889       0.80555556       0.48115000 </v>
   <v>       0.58333333       0.80555556       0.51885000 </v>
   <v>       0.63888889       0.86111111       0.51885000 </v>
   <v>       0.58333333       0.86111111       0.55655000 </v>
   <v>       0.63888889       0.80555556       0.55655000 </v>
   <v>       0.58333333       0.80555556       0.59425000 </v>
   <v>       0.63888889       0.86111111       0.59425000 </v>
   <v>       0.58333333       0.91666667       0.36805000 </v>
   <v>       0.63888889       0.97222222       0.36805000 </v>
   <v>       0.58333333       0.97222222       0.40575000 </v>
   <v>       0.63888889       0.91666667       0.40575000 </v>
   <v>       0.58333333       0.91666667       0.44345000 </v>
   <v>       0.63888889       0.97222222       0.44345000 </v>
   <v>       0.58333333       0.97222222       0.48115000 </v>
   <v>       0.63888889       0.91666667       0.48115000 </v>
   <v>       0.58333333       0.91666667       0.51885000 </v>
   <v>       0.63888889       0.97222222       0.51885000 </v>
   <v>       0.58333333       0.97222222       0.55655000 </v>
   <v>       0.63888889       0.91666667       0.55655000 </v>
   <v>       0.58333333       0.91666667       0.59425000 </v>
   <v>       0.63888889       0.97222222       0.59425000 </v>
   <v>       0.69444444       0.02777778       0.36805000 </v>
   <v>       0.75000000       0.08333333       0.36805000 </v>
   <v>       0.69444444       0.08333333       0.40575000 </v>
   <v>       0.75000000       0.02777778       0.40575000 </v>
   <v>       0.69444444       0.02777778       0.44345000 </v>
   <v>       0.75000000       0.08333333       0.44345000 </v>
   <v>       0.69444444       0.08333333       0.48115000 </v>
   <v>       0.75000000       0.02777778       0.48115000 </v>
   <v>       0.69444444       0.02777778       0.51885000 </v>
   <v>       0.75000000       0.08333333       0.51885000 </v>
   <v>       0.69444444       0.08333333       0.55655000 </v>
   <v>       0.75000000       0.02777778       0.55655000 </v>
   <v>       0.69444444       0.02777778       0.59425000 </v>
   <v>       0.75000000       0.08333333       0.59425000 </v>
   <v>       0.69444444       0.13888889       0.36805000 </v>
   <v>       0.75000000       0.19444444       0.36805000 </v>
   <v>       0.69444444       0.19444444       0.40575000 </v>
   <v>       0.75000000       0.13888889       0.40575000 </v>
   <v>       0.69444444       0.13888889       0.44345000 </v>
   <v>       0.75000000       0.19444444       0.44345000 </v>
   <v>       0.69444444       0.19444444       0.48115000 </v>
   <v>       0.75000000       0.13888889       0.48115000 </v>
   <v>       0.69444444       0.13888889       0.51885000 </v>
   <v>       0.75000000       0.19444444       0.51885000 </v>
   <v>       0.69444444       0.19444444       0.55655000 </v>
   <v>       0.75000000       0.13888889       0.55655000 </v>
   <v>       0.69444444       0.13888889       0.59425000 </v>
   <v>       0.75000000       0.19444444       0.59425000 </v>
   <v>       0.69444444       0.25000000       0.36805000 </v>
   <v>       0.75000000       0.30555556       0.36805000 </v>
   <v>       0.69444444       0.30555556       0.40575000 </v>
   <v>       0.75000000       0.25000000       0.40575000 </v>
   <v>       0.69444444       0.25000000       0.44345000 </v>
   <v>       0.75000000       0.30555556       0.44345000 </v>
   <v>       0.69444444       0.30555556       0.48115000 </v>
   <v>       0.75000000       0.25000000       0.48115000 </v>
   <v>       0.69444444       0.25000000       0.51885000 </v>
   <v>       0.75000000       0.30555556       0.51885000 </v>
   <v>       0.69444444       0.30555556       0.55655000 </v>
   <v>       0.75000000       0.25000000       0.55655000 </v>
   <v>       0.69444444       0.25000000       0.59425000 </v>
   <v>       0.75000000       0.30555556       0.59425000 </v>
   <v>       0.69444444       0.36111111       0.36805000 </v>
   <v>       0.75000000       0.41666667       0.36805000 </v>
   <v>       0.69444444       0.41666667       0.40575000 </v>
   <v>       0.75000000       0.36111111       0.40575000 </v>
   <v>       0.69444444       0.36111111       0.44345000 </v>
   <v>       0.75000000       0.41666667       0.44345000 </v>
   <v>       0.69444444       0.41666667       0.48115000 </v>
   <v>       0.75000000       0.36111111       0.48115000 </v>
   <v>       0.69444444       0.36111111       0.51885000 </v>
   <v>       0.75000000       0.41666667       0.51885000 </v>
   <v>       0.69444444       0.41666667       0.55655000 </v>
   <v>       0.75000000       0.36111111       0.55655000 </v>
   <v>       0.69444444       0.36111111       0.59425000 </v>
   <v>       0.75000000       0.41666667       0.59425000 </v>
   <v>       0.69444444       0.47222222       0.36805000 </v>
   <v>       0.75000000       0.52777778       0.36805000 </v>
   <v>       0.69444444       0.52777778       0.40575000 </v>
   <v>       0.75000000       0.47222222       0.40575000 </v>
   <v>       0.69444444       0.47222222       0.44345000 </v>
   <v>       0.75000000       0.52777778       0.44345000 </v>
   <v>       0.69444444       0.52777778       0.48115000 </v>
   <v>       0.75000000       0.47222222       0.48115000 </v>
   <v>       0.69444444       0.47222222       0.51885000 </v>
   <v>       0.75000000       0.52777778       0.51885000 </v>
   <v>       0.69444444       0.52777778       0.55655000 </v>
   <v>       0.75000000       0.47222222       0.55655000 </v>
   <v>       0.69444444       0.47222222       0.59425000 </v>
   <v>       0.75000000       0.52777778       0.59425000 </v>
   <v>       0.69444444       0.58333333       0.36805000 </v>
   <v>       0.75000000       0.63888889       0.36805000 </v>
   <v>       0.69444444       0.63888889       0.40575000 </v>
   <v>       0.75000000       0.58333333       0.40575000 </v>
   <v>       0.69444444       0.58333333       0.44345000 </v>
   <v>       0.75000000       0.63888889       0.44345000 </v>
   <v>       0.69444444       0.63888889       0.48115000 </v>
   <v>       0.75000000       0.58333333       0.48115000 </v>
   <v>       0.69444444       0.58333333       0.51885000 </v>
   <v>       0.75000000       0.63888889       0.51885000 </v>
   <v>       0.69444444       0.63888889       0.55655000 </v>
   <v>       0.75000000       0.58333333       0.55655000 </v>
   <v>       0.69444444       0.58333333       0.59425000 </v>
   <v>       0.75000000       0.63888889       0.59425000 </v>
   <v>       0.69444444       0.69444444       0.36805000 </v>
   <v>       0.75000000       0.75000000       0.36805000 </v>
   <v>       0.69444444       0.75000000       0.40575000 </v>
   <v>       0.75000000       0.69444444       0.40575000 </v>
   <v>       0.69444444       0.69444444       0.44345000 </v>
   <v>       0.75000000       0.75000000       0.44345000 </v>
   <v>       0.69444444       0.75000000       0.48115000 </v>
   <v>       0.75000000       0.69444444       0.48115000 </v>
   <v>       0.69444444       0.69444444       0.51885000 </v>
   <v>       0.75000000       0.75000000       0.51885000 </v>
   <v>       0.69444444       0.75000000       0.55655000 </v>
   <v>       0.75000000       0.69444444       0.55655000 </v>
   <v>       0.69444444       0.69444444       0.59425000 </v>
   <v>       0.75000000       0.75000000       0.59425000 </v>
   <v>       0.69444444       0.80555556       0.36805000 </v>
   <v>       0.75000000       0.86111111       0.36805000 </v>
   <v>       0.69444444       0.86111111       0.40575000 </v>
   <v>       0.75000000       0.80555556       0.40575000 </v>
   <v>       0.69444444       0.80555556       0.44345000 </v>
   <v>       0.75000000       0.86111111       0.44345000 </v>
   <v>       0.69444444       0.86111111       0.48115000 </v>
   <v>       0.75000000       0.80555556       0.48115000 </v>
   <v>       0.69444444       0.80555556       0.51885000 </v>
   <v>       0.75000000       0.86111111       0.51885000 </v>
   <v>       0.69444444       0.86111111       0.55655000 </v>
   <v>       0.75000000       0.80555556       0.55655000 </v>
   <v>       0.69444444       0.80555556       0.59425000 </v>
   <v>       0.75000000       0.86111111       0.59425000 </v>
   <v>       0.69444444       0.91666667       0.36805000 </v>
   <v>       0.75000000       0.97222222       0.36805000 </v>
   <v>       0.69444444       0.97222222       0.40575000 </v>
   <v>       0.75000000       0.91666667       0.40575000 </v>
   <v>       0.69444444       0.91666667       0.44345000 </v>
   <v>       0.75000000       0.97222222       0.44345000 </v>
   <v>       0.69444444       0.97222222       0.48115000 </v>
   <v>       0.75000000       0.91666667       0.48115000 </v>
   <v>       0.69444444       0.91666667       0.51885000 </v>
   <v>       0.75000000       0.97222222       0.51885000 </v>
   <v>       0.69444444       0.97222222       0.55655000 </v>
   <v>       0.75000000       0.91666667       0.55655000 </v>
   <v>       0.69444444       0.91666667       0.59425000 </v>
   <v>       0.75000000       0.97222222       0.59425000 </v>
   <v>       0.80555556       0.02777778       0.36805000 </v>
   <v>       0.86111111       0.08333333       0.36805000 </v>
   <v>       0.80555556       0.08333333       0.40575000 </v>
   <v>       0.86111111       0.02777778       0.40575000 </v>
   <v>       0.80555556       0.02777778       0.44345000 </v>
   <v>       0.86111111       0.08333333       0.44345000 </v>
   <v>       0.80555556       0.08333333       0.48115000 </v>
   <v>       0.86111111       0.02777778       0.48115000 </v>
   <v>       0.80555556       0.02777778       0.51885000 </v>
   <v>       0.86111111       0.08333333       0.51885000 </v>
   <v>       0.80555556       0.08333333       0.55655000 </v>
   <v>       0.86111111       0.02777778       0.55655000 </v>
   <v>       0.80555556       0.02777778       0.59425000 </v>
   <v>       0.86111111       0.08333333       0.59425000 </v>
   <v>       0.80555556       0.13888889       0.36805000 </v>
   <v>       0.86111111       0.19444444       0.36805000 </v>
   <v>       0.80555556       0.19444444       0.40575000 </v>
   <v>       0.86111111       0.13888889       0.40575000 </v>
   <v>       0.80555556       0.13888889       0.44345000 </v>
   <v>       0.86111111       0.19444444       0.44345000 </v>
   <v>       0.80555556       0.19444444       0.48115000 </v>
   <v>       0.86111111       0.13888889       0.48115000 </v>
   <v>       0.80555556       0.13888889       0.51885000 </v>
   <v>       0.86111111       0.19444444       0.51885000 </v>
   <v>       0.80555556       0.19444444       0.55655000 </v>
   <v>       0.86111111       0.13888889       0.55655000 </v>
   <v>       0.80555556       0.13888889       0.59425000 </v>
   <v>       0.86111111       0.19444444       0.59425000 </v>
   <v>       0.80555556       0.25000000       0.36805000 </v>
   <v>       0.86111111       0.30555556       0.36805000 </v>
   <v>       0.80555556       0.30555556       0.40575000 </v>
   <v>       0.86111111       0.25000000       0.40575000 </v>
   <v>       0.80555556       0.25000000       0.44345000 </v>
   <v>       0.86111111       0.30555556       0.44345000 </v>
   <v>       0.80555556       0.30555556       0.48115000 </v>
   <v>       0.86111111       0.25000000       0.48115000 </v>
   <v>       0.80555556       0.25000000       0.51885000 </v>
   <v>       0.86111111       0.30555556       0.51885000 </v>
   <v>       0.80555556       0.30555556       0.55655000 </v>
   <v>       0.86111111       0.25000000       0.55655000 </v>
   <v>       0.80555556       0.25000000       0.59425000 </v>
   <v>       0.86111111       0.30555556       0.59425000 </v>
   <v>       0.80555556       0.36111111       0.36805000 </v>
   <v>       0.86111111       0.41666667       0.36805000 </v>
   <v>       0.80555556       0.41666667       0.40575000 </v>
   <v>       0.86111111       0.36111111       0.40575000 </v>
   <v>       0.80555556       0.36111111       0.44345000 </v>
   <v>       0.86111111       0.41666667       0.44345000 </v>
   <v>       0.80555556       0.41666667       0.48115000 </v>
   <v>       0.86111111       0.36111111       0.48115000 </v>
   <v>       0.80555556       0.36111111       0.51885000 </v>
   <v>       0.86111111       0.41666667       0.51885000 </v>
   <v>       0.80555556       0.41666667       0.55655000 </v>
   <v>       0.86111111       0.36111111       0.55655000 </v>
   <v>       0.80555556       0.36111111       0.59425000 </v>
   <v>       0.86111111       0.41666667       0.59425000 </v>
   <v>       0.80555556       0.47222222       0.36805000 </v>
   <v>       0.86111111       0.52777778       0.36805000 </v>
   <v>       0.80555556       0.52777778       0.40575000 </v>
   <v>       0.86111111       0.47222222       0.40575000 </v>
   <v>       0.80555556       0.47222222       0.44345000 </v>
   <v>       0.86111111       0.52777778       0.44345000 </v>
   <v>       0.80555556       0.52777778       0.48115000 </v>
   <v>       0.86111111       0.47222222       0.48115000 </v>
   <v>       0.80555556       0.47222222       0.51885000 </v>
   <v>       0.86111111       0.52777778       0.51885000 </v>
   <v>       0.80555556       0.52777778       0.55655000 </v>
   <v>       0.86111111       0.47222222       0.55655000 </v>
   <v>       0.80555556       0.47222222       0.59425000 </v>
   <v>       0.86111111       0.52777778       0.59425000 </v>
   <v>       0.80555556       0.58333333       0.36805000 </v>
   <v>       0.86111111       0.63888889       0.36805000 </v>
   <v>       0.80555556       0.63888889       0.40575000 </v>
   <v>       0.86111111       0.58333333       0.40575000 </v>
   <v>       0.80555556       0.58333333       0.44345000 </v>
   <v>       0.86111111       0.63888889       0.44345000 </v>
   <v>       0.80555556       0.63888889       0.48115000 </v>
   <v>       0.86111111       0.58333333       0.48115000 </v>
   <v>       0.80555556       0.58333333       0.51885000 </v>
   <v>       0.86111111       0.63888889       0.51885000 </v>
   <v>       0.80555556       0.63888889       0.55655000 </v>
   <v>       0.86111111       0.58333333       0.55655000 </v>
   <v>       0.80555556       0.58333333       0.59425000 </v>
   <v>       0.86111111       0.63888889       0.59425000 </v>
   <v>       0.80555556       0.69444444       0.36805000 </v>
   <v>       0.86111111       0.75000000       0.36805000 </v>
   <v>       0.80555556       0.75000000       0.40575000 </v>
   <v>       0.86111111       0.69444444       0.40575000 </v>
   <v>       0.80555556       0.69444444       0.44345000 </v>
   <v>       0.86111111       0.75000000       0.44345000 </v>
   <v>       0.80555556       0.75000000       0.48115000 </v>
   <v>       0.86111111       0.69444444       0.48115000 </v>
   <v>       0.80555556       0.69444444       0.51885000 </v>
   <v>       0.86111111       0.75000000       0.51885000 </v>
   <v>       0.80555556       0.75000000       0.55655000 </v>
   <v>       0.86111111       0.69444444       0.55655000 </v>
   <v>       0.80555556       0.69444444       0.59425000 </v>
   <v>       0.86111111       0.75000000       0.59425000 </v>
   <v>       0.80555556       0.80555556       0.36805000 </v>
   <v>       0.86111111       0.86111111       0.36805000 </v>
   <v>       0.80555556       0.86111111       0.40575000 </v>
   <v>       0.86111111       0.80555556       0.40575000 </v>
   <v>       0.80555556       0.80555556       0.44345000 </v>
   <v>       0.86111111       0.86111111       0.44345000 </v>
   <v>       0.80555556       0.86111111       0.48115000 </v>
   <v>       0.86111111       0.80555556       0.48115000 </v>
   <v>       0.80555556       0.80555556       0.51885000 </v>
   <v>       0.86111111       0.86111111       0.51885000 </v>
   <v>       0.80555556       0.86111111       0.55655000 </v>
   <v>       0.86111111       0.80555556       0.55655000 </v>
   <v>       0.80555556       0.80555556       0.59425000 </v>
   <v>       0.86111111       0.86111111       0.59425000 </v>
   <v>       0.80555556       0.91666667       0.36805000 </v>
   <v>       0.86111111       0.97222222       0.36805000 </v>
   <v>       0.80555556       0.97222222       0.40575000 </v>
   <v>       0.86111111       0.91666667       0.40575000 </v>
   <v>       0.80555556       0.91666667       0.44345000 </v>
   <v>       0.86111111       0.97222222       0.44345000 </v>
   <v>       0.80555556       0.97222222       0.48115000 </v>
   <v>       0.86111111       0.91666667       0.48115000 </v>
   <v>       0.80555556       0.91666667       0.51885000 </v>
   <v>       0.86111111       0.97222222       0.51885000 </v>
   <v>       0.80555556       0.97222222       0.55655000 </v>
   <v>       0.86111111       0.91666667       0.55655000 </v>
   <v>       0.80555556       0.91666667       0.59425000 </v>
   <v>       0.86111111       0.97222222       0.59425000 </v>
   <v>       0.91666667       0.02777778       0.36805000 </v>
   <v>       0.97222222       0.08333333       0.36805000 </v>
   <v>       0.91666667       0.08333333       0.40575000 </v>
   <v>       0.97222222       0.02777778       0.40575000 </v>
   <v>       0.91666667       0.02777778       0.44345000 </v>
   <v>       0.97222222       0.08333333       0.44345000 </v>
   <v>       0.91666667       0.08333333       0.48115000 </v>
   <v>       0.97222222       0.02777778       0.48115000 </v>
   <v>       0.91666667       0.02777778       0.51885000 </v>
   <v>       0.97222222       0.08333333       0.51885000 </v>
   <v>       0.91666667       0.08333333       0.55655000 </v>
   <v>       0.97222222       0.02777778       0.55655000 </v>
   <v>       0.91666667       0.02777778       0.59425000 </v>
   <v>       0.97222222       0.08333333       0.59425000 </v>
   <v>       0.91666667       0.13888889       0.36805000 </v>
   <v>       0.97222222       0.19444444       0.36805000 </v>
   <v>       0.91666667       0.19444444       0.40575000 </v>
   <v>       0.97222222       0.13888889       0.40575000 </v>
   <v>       0.91666667       0.13888889       0.44345000 </v>
   <v>       0.97222222       0.19444444       0.44345000 </v>
   <v>       0.91666667       0.19444444       0.48115000 </v>
   <v>       0.97222222       0.13888889       0.48115000 </v>
   <v>       0.91666667       0.13888889       0.51885000 </v>
   <v>       0.97222222       0.19444444       0.51885000 </v>
   <v>       0.91666667       0.19444444       0.55655000 </v>
   <v>       0.97222222       0.13888889       0.55655000 </v>
   <v>       0.91666667       0.13888889       0.59425000 </v>
   <v>       0.97222222       0.19444444       0.59425000 </v>
   <v>       0.91666667       0.25000000       0.36805000 </v>
   <v>       0.97222222       0.30555556       0.36805000 </v>
   <v>       0.91666667       0.30555556       0.40575000 </v>
   <v>       0.97222222       0.25000000       0.40575000 </v>
   <v>       0.91666667       0.25000000       0.44345000 </v>
   <v>       0.97222222       0.30555556       0.44345000 </v>
   <v>       0.91666667       0.30555556       0.48115000 </v>
   <v>       0.97222222       0.25000000       0.48115000 </v>
   <v>       0.91666667       0.25000000       0.51885000 </v>
   <v>       0.97222222       0.30555556       0.51885000 </v>
   <v>       0.91666667       0.30555556       0.55655000 </v>
   <v>       0.97222222       0.25000000       0.55655000 </v>
   <v>       0.91666667       0.25000000       0.59425000 </v>
   <v>       0.97222222       0.30555556       0.59425000 </v>
   <v>       0.91666667       0.36111111       0.36805000 </v>
   <v>       0.97222222       0.41666667       0.36805000 </v>
   <v>       0.91666667       0.41666667       0.40575000 </v>
   <v>       0.97222222       0.36111111       0.40575000 </v>
   <v>       0.91666667       0.36111111       0.44345000 </v>
   <v>       0.97222222       0.41666667       0.44345000 </v>
   <v>       0.91666667       0.41666667       0.48115000 </v>
   <v>       0.97222222       0.36111111       0.48115000 </v>
   <v>       0.91666667       0.36111111       0.51885000 </v>
   <v>       0.97222222       0.41666667       0.51885000 </v>
   <v>       0.91666667       0.41666667       0.55655000 </v>
   <v>       0.97222222       0.36111111       0.55655000 </v>
   <v>       0.91666667       0.36111111       0.59425000 </v>
   <v>       0.97222222       0.41666667       0.59425000 </v>
   <v>       0.91666667       0.47222222       0.36805000 </v>
   <v>       0.97222222       0.52777778       0.36805000 </v>
   <v>       0.91666667       0.52777778       0.40575000 </v>
   <v>       0.97222222       0.47222222       0.40575000 </v>
   <v>       0.91666667       0.47222222       0.44345000 </v>
   <v>       0.97222222       0.52777778       0.44345000 </v>
   <v>       0.91666667       0.52777778       0.48115000 </v>
   <v>       0.97222222       0.47222222       0.48115000 </v>
   <v>       0.91666667       0.47222222       0.51885000 </v>
   <v>       0.97222222       0.52777778       0.51885000 </v>
   <v>       0.91666667       0.52777778       0.55655000 </v>
   <v>       0.97222222       0.47222222       0.55655000 </v>
   <v>       0.91666667       0.47222222       0.59425000 </v>
   <v>       0.97222222       0.52777778       0.59425000 </v>
   <v>       0.91666667       0.58333333       0.36805000 </v>
   <v>       0.97222222       0.63888889       0.36805000 </v>
   <v>       0.91666667       0.63888889       0.40575000 </v>
   <v>       0.97222222       0.58333333       0.40575000 </v>
   <v>       0.91666667       0.58333333       0.44345000 </v>
   <v>       0.97222222       0.63888889       0.44345000 </v>
   <v>       0.91666667       0.63888889       0.48115000 </v>
   <v>       0.97222222       0.58333333       0.48115000 </v>
   <v>       0.91666667       0.58333333       0.51885000 </v>
   <v>       0.97222222       0.63888889       0.51885000 </v>
   <v>       0.91666667       0.63888889       0.55655000 </v>
   <v>       0.97222222       0.58333333       0.55655000 </v>
   <v>       0.91666667       0.58333333       0.59425000 </v>
   <v>       0.97222222       0.63888889       0.59425000 </v>
   <v>       0.91666667       0.69444444       0.36805000 </v>
   <v>       0.97222222       0.75000000       0.36805000 </v>
   <v>       0.91666667       0.75000000       0.40575000 </v>
   <v>       0.97222222       0.69444444       0.40575000 </v>
   <v>       0.91666667       0.69444444       0.44345000 </v>
   <v>       0.97222222       0.75000000       0.44345000 </v>
   <v>       0.91666667       0.75000000       0.48115000 </v>
   <v>       0.97222222       0.69444444       0.48115000 </v>
   <v>       0.91666667       0.69444444       0.51885000 </v>
   <v>       0.97222222       0.75000000       0.51885000 </v>
   <v>       0.91666667       0.75000000       0.55655000 </v>
   <v>       0.97222222       0.69444444       0.55655000 </v>
   <v>       0.91666667       0.69444444       0.59425000 </v>
   <v>       0.97222222       0.75000000       0.59425000 </v>
   <v>       0.91666667       0.80555556       0.36805000 </v>
   <v>       0.97222222       0.86111111       0.36805000 </v>
   <v>       0.91666667       0.86111111       0.40575000 </v>
   <v>       0.97222222       0.80555556       0.40575000 </v>
   <v>       0.91666667       0.80555556       0.44345000 </v>
   <v>       0.97222222       0.86111111       0.44345000 </v>
   <v>       0.91666667       0.86111111       0.48115000 </v>
   <v>       0.97222222       0.80555556       0.48115000 </v>
   <v>       0.91666667       0.80555556       0.51885000 </v>
   <v>       0.97222222       0.86111111       0.51885000 </v>
   <v>       0.91666667       0.86111111       0.55655000 </v>
   <v>       0.97222222       0.80555556       0.55655000 </v>
   <v>       0.91666667       0.80555556       0.59425000 </v>
   <v>       0.97222222       0.86111111       0.59425000 </v>
   <v>       0.91666667       0.91666667       0.36805000 </v>
   <v>       0.97222222       0.97222222       0.36805000 </v>
   <v>       0.91666667       0.97222222       0.40575000 </v>
   <v>       0.97222222       0.91666667       0.40575000 </v>
   <v>       0.91666667       0.91666667       0.44345000 </v>
   <v>       0.97222222       0.97222222       0.44345000 </v>
   <v>       0.91666667       0.97222222       0.48115000 </v>
   <v>       0.97222222       0.91666667       0.48115000 </v>
   <v>       0.91666667       0.91666667       0.51885000 </v>
   <v>       0.97222222       0.97222222       0.51885000 </v>
   <v>       0.91666667       0.97222222       0.55655000 </v>
   <v>       0.97222222       0.91666667       0.55655000 </v>
   <v>       0.91666667       0.91666667       0.59425000 </v>
   <v>       0.97222222       0.97222222       0.59425000 </v>
   <v>       0.39787798       0.44208665       0.72545000 </v>
   <v>       0.42859614       0.46901049       0.71860500 </v>
   <v>       0.43806398       0.46586899       0.68869104 </v>
   <v>       0.46878078       0.49279546       0.68184800 </v>
   <v>       0.41452505       0.47211264       0.67696704 </v>
   <v>       0.50585662       0.51206920       0.64144804 </v>
   <v>       0.45213504       0.46276617       0.73033102 </v>
   <v>       0.40665031       0.41495149       0.72114600 </v>
   <v>       0.49231969       0.48655113       0.69357104 </v>
   <v>       0.46000978       0.51992732       0.68615200 </v>
   <v>       0.41982514       0.49614232       0.72291102 </v>
   <v>       0.44683495       0.43873646       0.68438704 </v>
   <v>       0.37434041       0.44832765       0.71372600 </v>
   <v>       0.39130156       0.44426858       0.74623402 </v>
   <v>       0.47972370       0.48916581       0.64727200 </v>
  </varray>
 </structure>
 <calculation>
  <scstep>
   <time name="dav">   42.78   42.93</time>
   <time name="total">   45.43   51.92</time>
   <energy>
    <i name="alphaZ">  39801.56787930 </i>
    <i name="ewald">**************** </i>
    <i name="hartreedc">**************** </i>
    <i name="XCdc"> -11401.14253121 </i>
    <i name="pawpsdc"> 987597.23948095 </i>
    <i name="pawaedc">-934981.99874684 </i>
    <i name="eentropy">      0.03239261 </i>
    <i name="bandstr">  33804.17776011 </i>
    <i name="atom">1177406.62200342 </i>
    <i name="e_fr_energy"> 110830.89033935 </i>
    <i name="e_wo_entrp"> 110830.85794674 </i>
    <i name="e_0_energy"> 110830.87954181 </i>
   </energy>
  </scstep>
  <scstep>
   <time name="dav">   42.62   42.74</time>
   <time name="total">   42.62   42.74</time>
   <energy>
    <i name="e_fr_energy">   2388.06182650 </i>
    <i name="e_wo_entrp">   2388.06503101 </i>
    <i name="e_0_energy">   2388.06289467 </i>
   </energy>
  </scstep>
  <scstep>
   <time name="dav">   44.13   44.24</time>
   <time name="total">   44.13   44.24</time>
   <energy>
    <i name="e_fr_energy">  -2765.36497733 </i>
    <i name="e_wo_entrp">  -2764.71869297 </i>
    <i name="e_0_energy">  -2765.14954921 </i>
   </energy>
  </scstep>
  <scstep>
   <time name="dav">   43.22   43.40</time>
   <time name="total">   43.22   43.40</time>
   <energy>
    <i name="e_fr_energy">  -2836.16811323 </i>
    <i name="e_wo_entrp">  -2835.48450275 </i>
    <i name="e_0_energy">  -2835.94024307 </i>
   </energy>
  </scstep>
  <scstep>
   <time name="dav">   45.89   46.06</time>
   <time name="total">   47.14   47.31</time>
   <energy>
    <i name="e_fr_energy">  -2837.30086232 </i>
    <i name="e_wo_entrp">  -2836.62059862 </i>
    <i name="e_0_energy">  -2837.07410775 </i>
   </energy>
  </scstep>
  <scstep>
   <time name="diag">    4.05    4.06</time>
   <time name="diis">    9.18    9.32</time>
   <time name="orth">    1.65    1.66</time>
   <time name="total">   16.37   16.53</time>
   <energy>
    <i name="e_fr_energy">  -2562.98589146 </i>
    <i name="e_wo_entrp">  -2562.51779704 </i>
    <i name="e_0_energy">  -2562.82985999 </i>
   </energy>
  </scstep>
  <scstep>
   <time name="diag">    4.04    4.06</time>
   <time name="diis">    9.32    9.36</time>
   <time name="orth">    1.66    1.66</time>
   <time name="total">   16.52   16.57</time>
   <energy>
    <i name="e_fr_energy">  -2547.59084963 </i>
    <i name="e_wo_entrp">  -2547.34948106 </i>
    <i name="e_0_energy">  -2547.51039344 </i>
   </energy>
  </scstep>
  <scstep>
   <time name="diag">    4.05    4.06</time>
   <time name="diis">    9.55    9.69</time>
   <time name="orth">    1.66    1.66</time>
   <time name="total">   16.75   16.91</time>
   <energy>
    <i name="e_fr_energy">  -2558.31472439 </i>
    <i name="e_wo_entrp">  -2558.03574487 </i>
    <i name="e_0_energy">  -2558.22173122 </i>
   </energy>
  </scstep>
  <scstep>
   <time name="diag">    4.04    4.05</time>
   <time name="diis">    9.76    9.79</time>
   <time name="orth">    1.66    1.67</time>
   <time name="total">   16.96   17.01</time>
   <energy>
    <i name="e_fr_energy">  -2546.58300440 </i>
    <i name="e_wo_entrp">  -2546.43548195 </i>
    <i name="e_0_energy">  -2546.53383025 </i>
   </energy>
  </scstep>
  <scstep>
   <time name="diag">    4.06    4.07</time>
   <time name="diis">    9.69    9.81</time>
   <time name="orth">    1.66    1.66</time>
   <time name="total">   16.92   17.05</time>
   <energy>
    <i name="e_fr_energy">  -2533.61372927 </i>
    <i name="e_wo_entrp">  -2532.78650060 </i>
    <i name="e_0_energy">  -2533.33798638 </i>
   </energy>
  </scstep>
  <scstep>
   <time name="diag">    4.04    4.06</time>
   <time name="diis">    9.68    9.71</time>
   <time name="orth">    1.66    1.66</time>
   <time name="total">   16.95   17.00</time>
   <energy>
    <i name="e_fr_energy">  -2532.86567238 </i>
    <i name="e_wo_entrp">  -2531.96479386 </i>
    <i name="e_0_energy">  -2532.56537954 </i>
   </energy>
  </scstep>
  <scstep>
   <time name="diag">    4.04    4.15</time>
   <time name="diis">    9.74    9.77</time>
   <time name="orth">    1.66    1.66</time>
   <time name="total">   16.96   17.11</time>
   <energy>
    <i name="e_fr_energy">  -2532.01076012 </i>
    <i name="e_wo_entrp">  -2531.27569045 </i>
    <i name="e_0_energy">  -2531.76573690 </i>
   </energy>
  </scstep>
  <scstep>
   <time name="diag">    4.04    4.06</time>
   <time name="diis">    9.76    9.79</time>
   <time name="orth">    1.54    1.67</time>
   <time name="total">   16.86   17.04</time>
   <energy>
    <i name="e_fr_energy">  -2531.91854607 </i>
    <i name="e_wo_entrp">  -2531.16822429 </i>
    <i name="e_0_energy">  -2531.66843881 </i>
   </energy>
  </scstep>
  <scstep>
   <time name="diag">    4.04    4.05</time>
   <time name="diis">    9.76    9.80</time>
   <time name="orth">    1.66    1.66</time>
   <time name="total">   16.99   17.04</time>
   <energy>
    <i name="e_fr_energy">  -2531.95899295 </i>
    <i name="e_wo_entrp">  -2531.22438681 </i>
    <i name="e_0_energy">  -2531.71412423 </i>
   </energy>
  </scstep>
  <scstep>
   <time name="diag">    4.04    4.05</time>
   <time name="diis">    9.84    9.97</time>
   <time name="orth">    1.66    1.67</time>
   <time name="total">   17.09   17.23</time>
   <energy>
    <i name="e_fr_energy">  -2531.87013903 </i>
    <i name="e_wo_entrp">  -2531.09303926 </i>
    <i name="e_0_energy">  -2531.61110577 </i>
   </energy>
  </scstep>
  <scstep>
   <time name="diag">    4.04    4.05</time>
   <time name="diis">    9.82    9.85</time>
   <time name="orth">    1.66    1.67</time>
   <time name="total">   17.07   17.12</time>
   <energy>
    <i name="e_fr_energy">  -2531.86590920 </i>
    <i name="e_wo_entrp">  -2531.08517162 </i>
    <i name="e_0_energy">  -2531.60566334 </i>
   </energy>
  </scstep>
  <scstep>
   <time name="diag">    4.06    4.07</time>
   <time name="diis">    9.72    9.84</time>
   <time name="orth">    1.65    1.66</time>
   <time name="total">   16.98   17.13</time>
   <energy>
    <i name="e_fr_energy">  -2531.86231175 </i>
    <i name="e_wo_entrp">  -2531.08235045 </i>
    <i name="e_0_energy">  -2531.60232465 </i>
   </energy>
  </scstep>
  <scstep>
   <time name="diag">    4.04    4.05</time>
   <time name="diis">    9.74    9.77</time>
   <time name="orth">    1.66    1.66</time>
   <time name="total">   17.05   17.11</time>
   <energy>
    <i name="e_fr_energy">  -2531.86988415 </i>
    <i name="e_wo_entrp">  -2531.09214165 </i>
    <i name="e_0_energy">  -2531.61063665 </i>
   </energy>
  </scstep>
  <scstep>
   <time name="diag">    4.11    4.13</time>
   <time name="diis">    9.75    9.78</time>
   <time name="orth">    1.66    1.66</time>
   <time name="total">   17.09   17.14</time>
   <energy>
    <i name="e_fr_energy">  -2531.86981336 </i>
    <i name="e_wo_entrp">  -2531.09188460 </i>
    <i name="e_0_energy">  -2531.61050377 </i>
   </energy>
  </scstep>
  <scstep>
   <time name="diag">    4.04    4.05</time>
   <time name="diis">   10.12   10.15</time>
   <time name="orth">    1.66    1.66</time>
   <time name="total">   17.40   17.45</time>
   <energy>
    <i name="e_fr_energy">  -2531.87383785 </i>
    <i name="e_wo_entrp">  -2531.09691036 </i>
    <i name="e_0_energy">  -2531.61486202 </i>
   </energy>
  </scstep>
  <scstep>
   <time name="diag">    4.05    4.06</time>
   <time name="diis">   10.15   10.18</time>
   <time name="orth">    1.66    1.66</time>
   <time name="total">   17.45   17.49</time>
   <energy>
    <i name="e_fr_energy">  -2531.88070196 </i>
    <i name="e_wo_entrp">  -2531.10546291 </i>
    <i name="e_0_energy">  -2531.62228894 </i>
   </energy>
  </scstep>
  <scstep>
   <time name="diag">    4.04    4.05</time>
   <time name="diis">   10.19   10.28</time>
   <time name="orth">    1.66    1.66</time>
   <time name="total">   17.50   17.60</time>
   <energy>
    <i name="e_fr_energy">  -2531.88626224 </i>
    <i name="e_wo_entrp">  -2531.11191750 </i>
    <i name="e_0_energy">  -2531.62814733 </i>
   </energy>
  </scstep>
  <scstep>
   <time name="diag">    4.04    4.05</time>
   <time name="diis">   10.20   10.23</time>
   <time name="orth">    1.65    1.66</time>
   <time name="total">   17.51   17.56</time>
   <energy>
    <i name="e_fr_energy">  -2531.89067297 </i>
    <i name="e_wo_entrp">  -2531.11690047 </i>
    <i name="e_0_energy">  -2531.63274880 </i>
   </energy>
  </scstep>
  <scstep>
   <time name="diag">    4.05    4.12</time>
   <time name="diis">   10.08   10.11</time>
   <time name="orth">    1.66    1.66</time>
   <time name="total">   17.42   17.54</time>
   <energy>
    <i name="e_fr_energy">  -2531.89335147 </i>
    <i name="e_wo_entrp">  -2531.11987743 </i>
    <i name="e_0_energy">  -2531.63552679 </i>
   </energy>
  </scstep>
  <scstep>
   <time name="diag">    4.04    4.05</time>
   <time name="diis">   10.05   10.08</time>
   <time name="orth">    1.60    1.66</time>
   <time name="total">   17.33   17.44</time>
   <energy>
    <i name="e_fr_energy">  -2531.89500019 </i>
    <i name="e_wo_entrp">  -2531.12161488 </i>
    <i name="e_0_energy">  -2531.63720509 </i>
   </energy>
  </scstep>
  <scstep>
   <time name="diag">    4.04    4.05</time>
   <time name="diis">   10.14   10.18</time>
   <time name="orth">    1.66    1.66</time>
   <time name="total">   17.57   17.62</time>
   <energy>
    <i name="e_fr_energy">  -2531.89716759 </i>
    <i name="e_wo_entrp">  -2531.12399611 </i>
    <i name="e_0_energy">  -2531.63944376 </i>
   </energy>
  </scstep>
  <scstep>
   <time name="diag">    4.04    4.05</time>
   <time name="diis">   10.16   10.20</time>
   <time name="orth">    1.66    1.66</time>
   <time name="total">   17.52   17.58</time>
   <energy>
    <i name="e_fr_energy">  -2531.89972355 </i>
    <i name="e_wo_entrp">  -2531.12678180 </i>
    <i name="e_0_energy">  -2531.64207630 </i>
   </energy>
  </scstep>
  <scstep>
   <time name="diag">    4.04    4.06</time>
   <time name="diis">    9.59    9.62</time>
   <time name="orth">    1.66    1.66</time>
   <time name="total">   16.98   17.03</time>
   <energy>
    <i name="e_fr_energy">  -2531.90132990 </i>
    <i name="e_wo_entrp">  -2531.12846579 </i>
    <i name="e_0_energy">  -2531.64370853 </i>
   </energy>
  </scstep>
  <scstep>
   <time name="diag">    4.04    4.05</time>
   <time name="diis">    8.54    8.57</time>
   <time name="orth">    1.66    1.67</time>
   <time name="total">   15.94   15.99</time>
   <energy>
    <i name="e_fr_energy">  -2531.90208713 </i>
    <i name="e_wo_entrp">  -2531.12923279 </i>
    <i name="e_0_energy">  -2531.64446901 </i>
   </energy>
  </scstep>
  <scstep>
   <time name="diag">    4.04    4.06</time>
   <time name="diis">    8.06    8.09</time>
   <time name="orth">    1.66    1.67</time>
   <time name="total">   15.49   15.53</time>
   <energy>
    <i name="e_fr_energy">  -2531.90287307 </i>
    <i name="e_wo_entrp">  -2531.13000871 </i>
    <i name="e_0_energy">  -2531.64525162 </i>
   </energy>
  </scstep>
  <scstep>
   <time name="diag">    4.06    4.07</time>
   <time name="diis">    7.32    7.35</time>
   <time name="orth">    1.66    1.66</time>
   <time name="total">   14.77   14.82</time>
   <energy>
    <i name="e_fr_energy">  -2531.90324156 </i>
    <i name="e_wo_entrp">  -2531.13038206 </i>
    <i name="e_0_energy">  -2531.64562173 </i>
   </energy>
  </scstep>
  <scstep>
   <time name="diag">    4.04    4.05</time>
   <time name="diis">    6.90    6.92</time>
   <time name="orth">    1.66    1.66</time>
   <time name="total">   14.35   14.39</time>
   <energy>
    <i name="e_fr_energy">  -2531.90339234 </i>
    <i name="e_wo_entrp">  -2531.13053886 </i>
    <i name="e_0_energy">  -2531.64577451 </i>
   </energy>
  </scstep>
  <scstep>
   <time name="diag">    4.06    4.07</time>
   <time name="diis">    6.91    6.97</time>
   <time name="orth">    1.66    1.66</time>
   <time name="total">   14.40   14.48</time>
   <energy>
    <i name="e_fr_energy">  -2531.90353946 </i>
    <i name="e_wo_entrp">  -2531.13069624 </i>
    <i name="e_0_energy">  -2531.64592506 </i>
   </energy>
  </scstep>
  <scstep>
   <time name="diag">    4.04    4.05</time>
   <time name="diis">    6.83    6.85</time>
   <time name="orth">    1.66    1.66</time>
   <time name="total">   14.32   14.36</time>
   <energy>
    <i name="e_fr_energy">  -2531.90365345 </i>
    <i name="e_wo_entrp">  -2531.13081584 </i>
    <i name="e_0_energy">  -2531.64604092 </i>
   </energy>
  </scstep>
  <scstep>
   <time name="diag">    4.04    4.05</time>
   <time name="diis">    6.72    6.84</time>
   <time name="orth">    1.66    1.66</time>
   <time name="total">   14.23   14.37</time>
   <energy>
    <i name="e_fr_energy">  -2531.90372032 </i>
    <i name="e_wo_entrp">  -2531.13088481 </i>
    <i name="e_0_energy">  -2531.64610848 </i>
   </energy>
  </scstep>
  <scstep>
   <time name="diag">    4.04    4.05</time>
   <time name="diis">    6.61    6.63</time>
   <time name="orth">    1.66    1.66</time>
   <time name="total">   14.14   14.18</time>
   <energy>
    <i name="e_fr_energy">  -2531.90375743 </i>
    <i name="e_wo_entrp">  -2531.13092224 </i>
    <i name="e_0_energy">  -2531.64614570 </i>
   </energy>
  </scstep>
  <scstep>
   <time name="diag">    4.04    4.05</time>
   <time name="diis">    6.01    6.03</time>
   <time name="orth">    1.66    1.66</time>
   <time name="total">   13.57   13.61</time>
   <energy>
    <i name="e_fr_energy">  -2531.90377451 </i>
    <i name="e_wo_entrp">  -2531.13093996 </i>
    <i name="e_0_energy">  -2531.64616299 </i>
   </energy>
  </scstep>
  <scstep>
   <time name="diag">    4.04    4.05</time>
   <time name="diis">    5.43    5.45</time>
   <time name="orth">    1.65    1.66</time>
   <time name="total">   13.00   13.04</time>
   <energy>
    <i name="e_fr_energy">  -2531.90378591 </i>
    <i name="e_wo_entrp">  -2531.13095285 </i>
    <i name="e_0_energy">  -2531.64617489 </i>
   </energy>
  </scstep>
  <scstep>
   <time name="diag">    4.04    4.05</time>
   <time name="diis">    5.03    5.05</time>
   <time name="orth">    1.65    1.66</time>
   <time name="total">   12.63   12.66</time>
   <energy>
    <i name="e_fr_energy">  -2531.90379180 </i>
    <i name="e_wo_entrp">  -2531.13095932 </i>
    <i name="e_0_energy">  -2531.64618097 </i>
   </energy>
  </scstep>
  <scstep>
   <time name="diag">    4.11    4.12</time>
   <time name="diis">    5.06    5.08</time>
   <time name="orth">    1.66    1.66</time>
   <time name="total">   12.75   12.78</time>
   <energy>
    <i name="e_fr_energy">  -2531.90380083 </i>
    <i name="e_wo_entrp">  -2531.13096851 </i>
    <i name="e_0_energy">  -2531.64619006 </i>
   </energy>
  </scstep>
  <scstep>
   <time name="diag">    4.04    4.05</time>
   <time name="diis">    4.98    5.00</time>
   <time name="orth">    1.65    1.66</time>
   <time name="total">   12.61   12.65</time>
   <energy>
    <i name="e_fr_energy">  -2531.90380495 </i>
    <i name="e_wo_entrp">  -2531.13097083 </i>
    <i name="e_0_energy">  -2531.64619358 </i>
   </energy>
  </scstep>
  <scstep>
   <time name="diag">    4.12    4.13</time>
   <time name="diis">    4.32    4.36</time>
   <time name="orth">    1.66    1.66</time>
   <time name="total">   10.34   10.39</time>
   <energy>
    <i name="alphaZ">  39801.56787930 </i>
    <i name="ewald">**************** </i>
    <i name="hartreedc">**************** </i>
    <i name="XCdc"> -11883.74354252 </i>
    <i name="pawpsdc">1017523.34971184 </i>
    <i name="pawaedc">-969122.34282004 </i>
    <i name="eentropy">     -0.77283480 </i>
    <i name="bandstr"> -84001.53701287 </i>
    <i name="atom">1177406.62200342 </i>
    <i name="e_fr_energy">  -2531.90380592 </i>
    <i name="e_wo_entrp">  -2531.13097113 </i>
    <i name="e_0_energy">  -2531.64619432 </i>
   </energy>
  </scstep>
  <structure>
   <crystal>
    <varray name="basis" >
     <v>      33.93000000       0.00000000       0.00000000 </v>
     <v>       0.00000000      33.93000000       0.00000000 </v>
     <v>       0.00000000       0.00000000      50.00000000 </v>
    </varray>
    <i name="volume">  57562.24500000 </i>
    <varray name="rec_basis" >
     <v>       0.02947244       0.00000000       0.00000000 </v>
     <v>       0.00000000       0.02947244       0.00000000 </v>
     <v>       0.00000000       0.00000000       0.02000000 </v>
    </varray>
   </crystal>
   <varray name="positions" >
    <v>       0.02777778       0.02777778       0.36805000 </v>
    <v>       0.08333333       0.08333333       0.36805000 </v>
    <v>       0.02777778       0.08333333       0.40575000 </v>
    <v>       0.08333333       0.02777778       0.40575000 </v>
    <v>       0.02777778       0.02777778       0.44345000 </v>
    <v>       0.08333333       0.08333333       0.44345000 </v>
    <v>       0.02777778       0.08333333       0.48115000 </v>
    <v>       0.08333333       0.02777778       0.48115000 </v>
    <v>       0.02777778       0.02777778       0.51885000 </v>
    <v>       0.08333333       0.08333333       0.51885000 </v>
    <v>       0.02777778       0.08333333       0.55655000 </v>
    <v>       0.08333333       0.02777778       0.55655000 </v>
    <v>       0.02777778       0.02777778       0.59425000 </v>
    <v>       0.08333333       0.08333333       0.59425000 </v>
    <v>       0.02777778       0.13888889       0.36805000 </v>
    <v>       0.08333333       0.19444444       0.36805000 </v>
    <v>       0.02777778       0.19444444       0.40575000 </v>
    <v>       0.08333333       0.13888889       0.40575000 </v>
    <v>       0.02777778       0.13888889       0.44345000 </v>
    <v>       0.08333333       0.19444444       0.44345000 </v>
    <v>       0.02777778       0.19444444       0.48115000 </v>
    <v>       0.08333333       0.13888889       0.48115000 </v>
    <v>       0.02777778       0.13888889       0.51885000 </v>
    <v>       0.08333333       0.19444444       0.51885000 </v>
    <v>       0.02777778       0.19444444       0.55655000 </v>
    <v>       0.08333333       0.13888889       0.55655000 </v>
    <v>       0.02777778       0.13888889       0.59425000 </v>
    <v>       0.08333333       0.19444444       0.59425000 </v>
    <v>       0.02777778       0.25000000       0.36805000 </v>
    <v>       0.08333333       0.30555556       0.36805000 </v>
    <v>       0.02777778       0.30555556       0.40575000 </v>
    <v>       0.08333333       0.25000000       0.40575000 </v>
    <v>       0.02777778       0.25000000       0.44345000 </v>
    <v>       0.08333333       0.30555556       0.44345000 </v>
    <v>       0.02777778       0.30555556       0.48115000 </v>
    <v>       0.08333333       0.25000000       0.48115000 </v>
    <v>       0.02777778       0.25000000       0.51885000 </v>
    <v>       0.08333333       0.30555556       0.51885000 </v>
    <v>       0.02777778       0.30555556       0.55655000 </v>
    <v>       0.08333333       0.25000000       0.55655000 </v>
    <v>       0.02777778       0.25000000       0.59425000 </v>
    <v>       0.08333333       0.30555556       0.59425000 </v>
    <v>       0.02777778       0.36111111       0.36805000 </v>
    <v>       0.08333333       0.41666667       0.36805000 </v>
    <v>       0.02777778       0.41666667       0.40575000 </v>
    <v>       0.08333333       0.36111111       0.40575000 </v>
    <v>       0.02777778       0.36111111       0.44345000 </v>
    <v>       0.08333333       0.41666667       0.44345000 </v>
    <v>       0.02777778       0.41666667       0.48115000 </v>
    <v>       0.08333333       0.36111111       0.48115000 </v>
    <v>       0.02777778       0.36111111       0.51885000 </v>
    <v>       0.08333333       0.41666667       0.51885000 </v>
    <v>       0.02777778       0.41666667       0.55655000 </v>
    <v>       0.08333333       0.36111111       0.55655000 </v>
    <v>       0.02777778       0.36111111       0.59425000 </v>
    <v>       0.08333333       0.41666667       0.59425000 </v>
    <v>       0.02777778       0.47222222       0.36805000 </v>
    <v>       0.08333333       0.52777778       0.36805000 </v>
    <v>       0.02777778       0.52777778       0.40575000 </v>
    <v>       0.08333333       0.47222222       0.40575000 </v>
    <v>       0.02777778       0.47222222       0.44345000 </v>
    <v>       0.08333333       0.52777778       0.44345000 </v>
    <v>       0.02777778       0.52777778       0.48115000 </v>
    <v>       0.08333333       0.47222222       0.48115000 </v>
    <v>       0.02777778       0.47222222       0.51885000 </v>
    <v>       0.08333333       0.52777778       0.51885000 </v>
    <v>       0.02777778       0.52777778       0.55655000 </v>
    <v>       0.08333333       0.47222222       0.55655000 </v>
    <v>       0.02777778       0.47222222       0.59425000 </v>
    <v>       0.08333333       0.52777778       0.59425000 </v>
    <v>       0.02777778       0.58333333       0.36805000 </v>
    <v>       0.08333333       0.63888889       0.36805000 </v>
    <v>       0.02777778       0.63888889       0.40575000 </v>
    <v>       0.08333333       0.58333333       0.40575000 </v>
    <v>       0.02777778       0.58333333       0.44345000 </v>
    <v>       0.08333333       0.63888889       0.44345000 </v>
    <v>       0.02777778       0.63888889       0.48115000 </v>
    <v>       0.08333333       0.58333333       0.48115000 </v>
    <v>       0.02777778       0.58333333       0.51885000 </v>
    <v>       0.08333333       0.63888889       0.51885000 </v>
    <v>       0.02777778       0.63888889       0.55655000 </v>
    <v>       0.08333333       0.58333333       0.55655000 </v>
    <v>       0.02777778       0.58333333       0.59425000 </v>
    <v>       0.08333333       0.63888889       0.59425000 </v>
    <v>       0.02777778       0.69444444       0.36805000 </v>
    <v>       0.08333333       0.75000000       0.36805000 </v>
    <v>       0.02777778       0.75000000       0.40575000 </v>
    <v>       0.08333333       0.69444444       0.40575000 </v>
    <v>       0.02777778       0.69444444       0.44345000 </v>
    <v>       0.08333333       0.75000000       0.44345000 </v>
    <v>       0.02777778       0.75000000       0.48115000 </v>
    <v>       0.08333333       0.69444444       0.48115000 </v>
    <v>       0.02777778       0.69444444       0.51885000 </v>
    <v>       0.08333333       0.75000000       0.51885000 </v>
    <v>       0.02777778       0.75000000       0.55655000 </v>
    <v>       0.08333333       0.69444444       0.55655000 </v>
    <v>       0.02777778       0.69444444       0.59425000 </v>
    <v>       0.08333333       0.75000000       0.59425000 </v>
    <v>       0.02777778       0.80555556       0.36805000 </v>
    <v>       0.08333333       0.86111111       0.36805000 </v>
    <v>       0.02777778       0.86111111       0.40575000 </v>
    <v>       0.08333333       0.80555556       0.40575000 </v>
    <v>       0.02777778       0.80555556       0.44345000 </v>
    <v>       0.08333333       0.86111111       0.44345000 </v>
    <v>       0.02777778       0.86111111       0.48115000 </v>
    <v>       0.08333333       0.80555556       0.48115000 </v>
    <v>       0.02777778       0.80555556       0.51885000 </v>
    <v>       0.08333333       0.86111111       0.51885000 </v>
    <v>       0.02777778       0.86111111       0.55655000 </v>
    <v>       0.08333333       0.80555556       0.55655000 </v>
    <v>       0.02777778       0.80555556       0.59425000 </v>
    <v>       0.08333333       0.86111111       0.59425000 </v>
    <v>       0.02777778       0.91666667       0.36805000 </v>
    <v>       0.08333333       0.97222222       0.36805000 </v>
    <v>       0.02777778       0.97222222       0.40575000 </v>
    <v>       0.08333333       0.91666667       0.40575000 </v>
    <v>       0.02777778       0.91666667       0.44345000 </v>
    <v>       0.08333333       0.97222222       0.44345000 </v>
    <v>       0.02777778       0.97222222       0.48115000 </v>
    <v>       0.08333333       0.91666667       0.48115000 </v>
    <v>       0.02777778       0.91666667       0.51885000 </v>
    <v>       0.08333333       0.97222222       0.51885000 </v>
    <v>       0.02777778       0.97222222       0.55655000 </v>
    <v>       0.08333333       0.91666667       0.55655000 </v>
    <v>       0.02777778       0.91666667       0.59425000 </v>
    <v>       0.08333333       0.97222222       0.59425000 </v>
    <v>       0.13888889       0.02777778       0.36805000 </v>
    <v>       0.19444444       0.08333333       0.36805000 </v>
    <v>       0.13888889       0.08333333       0.40575000 </v>
    <v>       0.19444444       0.02777778       0.40575000 </v>
    <v>       0.13888889       0.02777778       0.44345000 </v>
    <v>       0.19444444       0.08333333       0.44345000 </v>
    <v>       0.13888889       0.08333333       0.48115000 </v>
    <v>       0.19444444       0.02777778       0.48115000 </v>
    <v>       0.13888889       0.02777778       0.51885000 </v>
    <v>       0.19444444       0.08333333       0.51885000 </v>
    <v>       0.13888889       0.08333333       0.55655000 </v>
    <v>       0.19444444       0.02777778       0.55655000 </v>
    <v>       0.13888889       0.02777778       0.59425000 </v>
    <v>       0.19444444       0.08333333       0.59425000 </v>
    <v>       0.13888889       0.13888889       0.36805000 </v>
    <v>       0.19444444       0.19444444       0.36805000 </v>
    <v>       0.13888889       0.19444444       0.40575000 </v>
    <v>       0.19444444       0.13888889       0.40575000 </v>
    <v>       0.13888889       0.13888889       0.44345000 </v>
    <v>       0.19444444       0.19444444       0.44345000 </v>
    <v>       0.13888889       0.19444444       0.48115000 </v>
    <v>       0.19444444       0.13888889       0.48115000 </v>
    <v>       0.13888889       0.13888889       0.51885000 </v>
    <v>       0.19444444       0.19444444       0.51885000 </v>
    <v>       0.13888889       0.19444444       0.55655000 </v>
    <v>       0.19444444       0.13888889       0.55655000 </v>
    <v>       0.13888889       0.13888889       0.59425000 </v>
    <v>       0.19444444       0.19444444       0.59425000 </v>
    <v>       0.13888889       0.25000000       0.36805000 </v>
    <v>       0.19444444       0.30555556       0.36805000 </v>
    <v>       0.13888889       0.30555556       0.40575000 </v>
    <v>       0.19444444       0.25000000       0.40575000 </v>
    <v>       0.13888889       0.25000000       0.44345000 </v>
    <v>       0.19444444       0.30555556       0.44345000 </v>
    <v>       0.13888889       0.30555556       0.48115000 </v>
    <v>       0.19444444       0.25000000       0.48115000 </v>
    <v>       0.13888889       0.25000000       0.51885000 </v>
    <v>       0.19444444       0.30555556       0.51885000 </v>
    <v>       0.13888889       0.30555556       0.55655000 </v>
    <v>       0.19444444       0.25000000       0.55655000 </v>
    <v>       0.13888889       0.25000000       0.59425000 </v>
    <v>       0.19444444       0.30555556       0.59425000 </v>
    <v>       0.13888889       0.36111111       0.36805000 </v>
    <v>       0.19444444       0.41666667       0.36805000 </v>
    <v>       0.13888889       0.41666667       0.40575000 </v>
    <v>       0.19444444       0.36111111       0.40575000 </v>
    <v>       0.13888889       0.36111111       0.44345000 </v>
    <v>       0.19444444       0.41666667       0.44345000 </v>
    <v>       0.13888889       0.41666667       0.48115000 </v>
    <v>       0.19444444       0.36111111       0.48115000 </v>
    <v>       0.13888889       0.36111111       0.51885000 </v>
    <v>       0.19444444       0.41666667       0.51885000 </v>
    <v>       0.13888889       0.41666667       0.55655000 </v>
    <v>       0.19444444       0.36111111       0.55655000 </v>
    <v>       0.13888889       0.36111111       0.59425000 </v>
    <v>       0.19444444       0.41666667       0.59425000 </v>
    <v>       0.13888889       0.47222222       0.36805000 </v>
    <v>       0.19444444       0.52777778       0.36805000 </v>
    <v>       0.13888889       0.52777778       0.40575000 </v>
    <v>       0.19444444       0.47222222       0.40575000 </v>
    <v>       0.13888889       0.47222222       0.44345000 </v>
    <v>       0.19444444       0.52777778       0.44345000 </v>
    <v>       0.13888889       0.52777778       0.48115000 </v>
    <v>       0.19444444       0.47222222       0.48115000 </v>
    <v>       0.13888889       0.47222222       0.51885000 </v>
    <v>       0.19444444       0.52777778       0.51885000 </v>
    <v>       0.13888889       0.52777778       0.55655000 </v>
    <v>       0.19444444       0.47222222       0.55655000 </v>
    <v>       0.13888889       0.47222222       0.59425000 </v>
    <v>       0.19444444       0.52777778       0.59425000 </v>
    <v>       0.13888889       0.58333333       0.36805000 </v>
    <v>       0.19444444       0.63888889       0.36805000 </v>
    <v>       0.13888889       0.63888889       0.40575000 </v>
    <v>       0.19444444       0.58333333       0.40575000 </v>
    <v>       0.13888889       0.58333333       0.44345000 </v>
    <v>       0.19444444       0.63888889       0.44345000 </v>
    <v>       0.13888889       0.63888889       0.48115000 </v>
    <v>       0.19444444       0.58333333       0.48115000 </v>
    <v>       0.13888889       0.58333333       0.51885000 </v>
    <v>       0.19444444       0.63888889       0.51885000 </v>
    <v>       0.13888889       0.63888889       0.55655000 </v>
    <v>       0.19444444       0.58333333       0.55655000 </v>
    <v>       0.13888889       0.58333333       0.59425000 </v>
    <v>       0.19444444       0.63888889       0.59425000 </v>
    <v>       0.13888889       0.69444444       0.36805000 </v>
    <v>       0.19444444       0.75000000       0.36805000 </v>
    <v>       0.13888889       0.75000000       0.40575000 </v>
    <v>       0.19444444       0.69444444       0.40575000 </v>
    <v>       0.13888889       0.69444444       0.44345000 </v>
    <v>       0.19444444       0.75000000       0.44345000 </v>
    <v>       0.13888889       0.75000000       0.48115000 </v>
    <v>       0.19444444       0.69444444       0.48115000 </v>
    <v>       0.13888889       0.69444444       0.51885000 </v>
    <v>       0.19444444       0.75000000       0.51885000 </v>
    <v>       0.13888889       0.75000000       0.55655000 </v>
    <v>       0.19444444       0.69444444       0.55655000 </v>
    <v>       0.13888889       0.69444444       0.59425000 </v>
    <v>       0.19444444       0.75000000       0.59425000 </v>
    <v>       0.13888889       0.80555556       0.36805000 </v>
    <v>       0.19444444       0.86111111       0.36805000 </v>
    <v>       0.13888889       0.86111111       0.40575000 </v>
    <v>       0.19444444       0.80555556       0.40575000 </v>
    <v>       0.13888889       0.80555556       0.44345000 </v>
    <v>       0.19444444       0.86111111       0.44345000 </v>
    <v>       0.13888889       0.86111111       0.48115000 </v>
    <v>       0.19444444       0.80555556       0.48115000 </v>
    <v>       0.13888889       0.80555556       0.51885000 </v>
    <v>       0.19444444       0.86111111       0.51885000 </v>
    <v>       0.13888889       0.86111111       0.55655000 </v>
    <v>       0.19444444       0.80555556       0.55655000 </v>
    <v>       0.13888889       0.80555556       0.59425000 </v>
    <v>       0.19444444       0.86111111       0.59425000 </v>
    <v>       0.13888889       0.91666667       0.36805000 </v>
    <v>       0.19444444       0.97222222       0.36805000 </v>
    <v>       0.13888889       0.97222222       0.40575000 </v>
    <v>       0.19444444       0.91666667       0.40575000 </v>
    <v>       0.13888889       0.91666667       0.44345000 </v>
    <v>       0.19444444       0.97222222       0.44345000 </v>
    <v>       0.13888889       0.97222222       0.48115000 </v>
    <v>       0.19444444       0.91666667       0.48115000 </v>
    <v>       0.13888889       0.91666667       0.51885000 </v>
    <v>       0.19444444       0.97222222       0.51885000 </v>
    <v>       0.13888889       0.97222222       0.55655000 </v>
    <v>       0.19444444       0.91666667       0.55655000 </v>
    <v>       0.13888889       0.91666667       0.59425000 </v>
    <v>       0.19444444       0.97222222       0.59425000 </v>
    <v>       0.25000000       0.02777778       0.36805000 </v>
    <v>       0.30555556       0.08333333       0.36805000 </v>
    <v>       0.25000000       0.08333333       0.40575000 </v>
    <v>       0.30555556       0.02777778       0.40575000 </v>
    <v>       0.25000000       0.02777778       0.44345000 </v>
    <v>       0.30555556       0.08333333       0.44345000 </v>
    <v>       0.25000000       0.08333333       0.48115000 </v>
    <v>       0.30555556       0.02777778       0.48115000 </v>
    <v>       0.25000000       0.02777778       0.51885000 </v>
    <v>       0.30555556       0.08333333       0.51885000 </v>
    <v>       0.25000000       0.08333333       0.55655000 </v>
    <v>       0.30555556       0.02777778       0.55655000 </v>
    <v>       0.25000000       0.02777778       0.59425000 </v>
    <v>       0.30555556       0.08333333       0.59425000 </v>
    <v>       0.25000000       0.13888889       0.36805000 </v>
    <v>       0.30555556       0.19444444       0.36805000 </v>
    <v>       0.25000000       0.19444444       0.40575000 </v>
    <v>       0.30555556       0.13888889       0.40575000 </v>
    <v>       0.25000000       0.13888889       0.44345000 </v>
    <v>       0.30555556       0.19444444       0.44345000 </v>
    <v>       0.25000000       0.19444444       0.48115000 </v>
    <v>       0.30555556       0.13888889       0.48115000 </v>
    <v>       0.25000000       0.13888889       0.51885000 </v>
    <v>       0.30555556       0.19444444       0.51885000 </v>
    <v>       0.25000000       0.19444444       0.55655000 </v>
    <v>       0.30555556       0.13888889       0.55655000 </v>
    <v>       0.25000000       0.13888889       0.59425000 </v>
    <v>       0.30555556       0.19444444       0.59425000 </v>
    <v>       0.25000000       0.25000000       0.36805000 </v>
    <v>       0.30555556       0.30555556       0.36805000 </v>
    <v>       0.25000000       0.30555556       0.40575000 </v>
    <v>       0.30555556       0.25000000       0.40575000 </v>
    <v>       0.25000000       0.25000000       0.44345000 </v>
    <v>       0.30555556       0.30555556       0.44345000 </v>
    <v>       0.25000000       0.30555556       0.48115000 </v>
    <v>       0.30555556       0.25000000       0.48115000 </v>
    <v>       0.25000000       0.25000000       0.51885000 </v>
    <v>       0.30555556       0.30555556       0.51885000 </v>
    <v>       0.25000000       0.30555556       0.55655000 </v>
    <v>       0.30555556       0.25000000       0.55655000 </v>
    <v>       0.25000000       0.25000000       0.59425000 </v>
    <v>       0.30555556       0.30555556       0.59425000 </v>
    <v>       0.25000000       0.36111111       0.36805000 </v>
    <v>       0.30555556       0.41666667       0.36805000 </v>
    <v>       0.25000000       0.41666667       0.40575000 </v>
    <v>       0.30555556       0.36111111       0.40575000 </v>
    <v>       0.25000000       0.36111111       0.44345000 </v>
    <v>       0.30555556       0.41666667       0.44345000 </v>
    <v>       0.25000000       0.41666667       0.48115000 </v>
    <v>       0.30555556       0.36111111       0.48115000 </v>
    <v>       0.25000000       0.36111111       0.51885000 </v>
    <v>       0.30555556       0.41666667       0.51885000 </v>
    <v>       0.25000000       0.41666667       0.55655000 </v>
    <v>       0.30555556       0.36111111       0.55655000 </v>
    <v>       0.25000000       0.36111111       0.59425000 </v>
    <v>       0.30555556       0.41666667       0.59425000 </v>
    <v>       0.25000000       0.47222222       0.36805000 </v>
    <v>       0.30555556       0.52777778       0.36805000 </v>
    <v>       0.25000000       0.52777778       0.40575000 </v>
    <v>       0.30555556       0.47222222       0.40575000 </v>
    <v>       0.25000000       0.47222222       0.44345000 </v>
    <v>       0.30555556       0.52777778       0.44345000 </v>
    <v>       0.25000000       0.52777778       0.48115000 </v>
    <v>       0.30555556       0.47222222       0.48115000 </v>
    <v>       0.25000000       0.47222222       0.51885000 </v>
    <v>       0.30555556       0.52777778       0.51885000 </v>
    <v>       0.25000000       0.52777778       0.55655000 </v>
    <v>       0.30555556       0.47222222       0.55655000 </v>
    <v>       0.25000000       0.47222222       0.59425000 </v>
    <v>       0.30555556       0.52777778       0.59425000 </v>
    <v>       0.25000000       0.58333333       0.36805000 </v>
    <v>       0.30555556       0.63888889       0.36805000 </v>
    <v>       0.25000000       0.63888889       0.40575000 </v>
    <v>       0.30555556       0.58333333       0.40575000 </v>
    <v>       0.25000000       0.58333333       0.44345000 </v>
    <v>       0.30555556       0.63888889       0.44345000 </v>
    <v>       0.25000000       0.63888889       0.48115000 </v>
    <v>       0.30555556       0.58333333       0.48115000 </v>
    <v>       0.25000000       0.58333333       0.51885000 </v>
    <v>       0.30555556       0.63888889       0.51885000 </v>
    <v>       0.25000000       0.63888889       0.55655000 </v>
    <v>       0.30555556       0.58333333       0.55655000 </v>
    <v>       0.25000000       0.58333333       0.59425000 </v>
    <v>       0.30555556       0.63888889       0.59425000 </v>
    <v>       0.25000000       0.69444444       0.36805000 </v>
    <v>       0.30555556       0.75000000       0.36805000 </v>
    <v>       0.25000000       0.75000000       0.40575000 </v>
    <v>       0.30555556       0.69444444       0.40575000 </v>
    <v>       0.25000000       0.69444444       0.44345000 </v>
    <v>       0.30555556       0.75000000       0.44345000 </v>
    <v>       0.25000000       0.75000000       0.48115000 </v>
    <v>       0.30555556       0.69444444       0.48115000 </v>
    <v>       0.25000000       0.69444444       0.51885000 </v>
    <v>       0.30555556       0.75000000       0.51885000 </v>
    <v>       0.25000000       0.75000000       0.55655000 </v>
    <v>       0.30555556       0.69444444       0.55655000 </v>
    <v>       0.25000000       0.69444444       0.59425000 </v>
    <v>       0.30555556       0.75000000       0.59425000 </v>
    <v>       0.25000000       0.80555556       0.36805000 </v>
    <v>       0.30555556       0.86111111       0.36805000 </v>
    <v>       0.25000000       0.86111111       0.40575000 </v>
    <v>       0.30555556       0.80555556       0.40575000 </v>
    <v>       0.25000000       0.80555556       0.44345000 </v>
    <v>       0.30555556       0.86111111       0.44345000 </v>
    <v>       0.25000000       0.86111111       0.48115000 </v>
    <v>       0.30555556       0.80555556       0.48115000 </v>
    <v>       0.25000000       0.80555556       0.51885000 </v>
    <v>       0.30555556       0.86111111       0.51885000 </v>
    <v>       0.25000000       0.86111111       0.55655000 </v>
    <v>       0.30555556       0.80555556       0.55655000 </v>
    <v>       0.25000000       0.80555556       0.59425000 </v>
    <v>       0.30555556       0.86111111       0.59425000 </v>
    <v>       0.25000000       0.91666667       0.36805000 </v>
    <v>       0.30555556       0.97222222       0.36805000 </v>
    <v>       0.25000000       0.97222222       0.40575000 </v>
    <v>       0.30555556       0.91666667       0.40575000 </v>
    <v>       0.25000000       0.91666667       0.44345000 </v>
    <v>       0.30555556       0.97222222       0.44345000 </v>
    <v>       0.25000000       0.97222222       0.48115000 </v>
    <v>       0.30555556       0.91666667       0.48115000 </v>
    <v>       0.25000000       0.91666667       0.51885000 </v>
    <v>       0.30555556       0.97222222       0.51885000 </v>
    <v>       0.25000000       0.97222222       0.55655000 </v>
    <v>       0.30555556       0.91666667       0.55655000 </v>
    <v>       0.25000000       0.91666667       0.59425000 </v>
    <v>       0.30555556       0.97222222       0.59425000 </v>
    <v>       0.36111111       0.02777778       0.36805000 </v>
    <v>       0.41666667       0.08333333       0.36805000 </v>
    <v>       0.36111111       0.08333333       0.40575000 </v>
    <v>       0.41666667       0.02777778       0.40575000 </v>
    <v>       0.36111111       0.02777778       0.44345000 </v>
    <v>       0.41666667       0.08333333       0.44345000 </v>
    <v>       0.36111111       0.08333333       0.48115000 </v>
    <v>       0.41666667       0.02777778       0.48115000 </v>
    <v>       0.36111111       0.02777778       0.51885000 </v>
    <v>       0.41666667       0.08333333       0.51885000 </v>
    <v>       0.36111111       0.08333333       0.55655000 </v>
    <v>       0.41666667       0.02777778       0.55655000 </v>
    <v>       0.36111111       0.02777778       0.59425000 </v>
    <v>       0.41666667       0.08333333       0.59425000 </v>
    <v>       0.36111111       0.13888889       0.36805000 </v>
    <v>       0.41666667       0.19444444       0.36805000 </v>
    <v>       0.36111111       0.19444444       0.40575000 </v>
    <v>       0.41666667       0.13888889       0.40575000 </v>
    <v>       0.36111111       0.13888889       0.44345000 </v>
    <v>       0.41666667       0.19444444       0.44345000 </v>
    <v>       0.36111111       0.19444444       0.48115000 </v>
    <v>       0.41666667       0.13888889       0.48115000 </v>
    <v>       0.36111111       0.13888889       0.51885000 </v>
    <v>       0.41666667       0.19444444       0.51885000 </v>
    <v>       0.36111111       0.19444444       0.55655000 </v>
    <v>       0.41666667       0.13888889       0.55655000 </v>
    <v>       0.36111111       0.13888889       0.59425000 </v>
    <v>       0.41666667       0.19444444       0.59425000 </v>
    <v>       0.36111111       0.25000000       0.36805000 </v>
    <v>       0.41666667       0.30555556       0.36805000 </v>
    <v>       0.36111111       0.30555556       0.40575000 </v>
    <v>       0.41666667       0.25000000       0.40575000 </v>
    <v>       0.36111111       0.25000000       0.44345000 </v>
    <v>       0.41666667       0.30555556       0.44345000 </v>
    <v>       0.36111111       0.30555556       0.48115000 </v>
    <v>       0.41666667       0.25000000       0.48115000 </v>
    <v>       0.36111111       0.25000000       0.51885000 </v>
    <v>       0.41666667       0.30555556       0.51885000 </v>
    <v>       0.36111111       0.30555556       0.55655000 </v>
    <v>       0.41666667       0.25000000       0.55655000 </v>
    <v>       0.36111111       0.25000000       0.59425000 </v>
    <v>       0.41666667       0.30555556       0.59425000 </v>
    <v>       0.36111111       0.36111111       0.36805000 </v>
    <v>       0.41666667       0.41666667       0.36805000 </v>
    <v>       0.36111111       0.41666667       0.40575000 </v>
    <v>       0.41666667       0.36111111       0.40575000 </v>
    <v>       0.36111111       0.36111111       0.44345000 </v>
    <v>       0.41666667       0.41666667       0.44345000 </v>
    <v>       0.36111111       0.41666667       0.48115000 </v>
    <v>       0.41666667       0.36111111       0.48115000 </v>
    <v>       0.36111111       0.36111111       0.51885000 </v>
    <v>       0.41666667       0.41666667       0.51885000 </v>
    <v>       0.36111111       0.41666667       0.55655000 </v>
    <v>       0.41666667       0.36111111       0.55655000 </v>
    <v>       0.36111111       0.36111111       0.59425000 </v>
    <v>       0.41666667       0.41666667       0.59425000 </v>
    <v>       0.36111111       0.47222222       0.36805000 </v>
    <v>       0.41666667       0.52777778       0.36805000 </v>
    <v>       0.36111111       0.52777778       0.40575000 </v>
    <v>       0.41666667       0.47222222       0.40575000 </v>
    <v>       0.36111111       0.47222222       0.44345000 </v>
    <v>       0.41666667       0.52777778       0.44345000 </v>
    <v>       0.36111111       0.52777778       0.48115000 </v>
    <v>       0.41666667       0.47222222       0.48115000 </v>
    <v>       0.36111111       0.47222222       0.51885000 </v>
    <v>       0.41666667       0.52777778       0.51885000 </v>
    <v>       0.36111111       0.52777778       0.55655000 </v>
    <v>       0.41666667       0.47222222       0.55655000 </v>
    <v>       0.36111111       0.47222222       0.59425000 </v>
    <v>       0.41666667       0.52777778       0.59425000 </v>
    <v>       0.36111111       0.58333333       0.36805000 </v>
    <v>       0.41666667       0.63888889       0.36805000 </v>
    <v>       0.36111111       0.63888889       0.40575000 </v>
    <v>       0.41666667       0.58333333       0.40575000 </v>
    <v>       0.36111111       0.58333333       0.44345000 </v>
    <v>       0.41666667       0.63888889       0.44345000 </v>
    <v>       0.36111111       0.63888889       0.48115000 </v>
    <v>       0.41666667       0.58333333       0.48115000 </v>
    <v>       0.36111111       0.58333333       0.51885000 </v>
    <v>       0.41666667       0.63888889       0.51885000 </v>
    <v>       0.36111111       0.63888889       0.55655000 </v>
    <v>       0.41666667       0.58333333       0.55655000 </v>
    <v>       0.36111111       0.58333333       0.59425000 </v>
    <v>       0.41666667       0.63888889       0.59425000 </v>
    <v>       0.36111111       0.69444444       0.36805000 </v>
    <v>       0.41666667       0.75000000       0.36805000 </v>
    <v>       0.36111111       0.75000000       0.40575000 </v>
    <v>       0.41666667       0.69444444       0.40575000 </v>
    <v>       0.36111111       0.69444444       0.44345000 </v>
    <v>       0.41666667       0.75000000       0.44345000 </v>
    <v>       0.36111111       0.75000000       0.48115000 </v>
    <v>       0.41666667       0.69444444       0.48115000 </v>
    <v>       0.36111111       0.69444444       0.51885000 </v>
    <v>       0.41666667       0.75000000       0.51885000 </v>
    <v>       0.36111111       0.75000000       0.55655000 </v>
    <v>       0.41666667       0.69444444       0.55655000 </v>
    <v>       0.36111111       0.69444444       0.59425000 </v>
    <v>       0.41666667       0.75000000       0.59425000 </v>
    <v>       0.36111111       0.80555556       0.36805000 </v>
    <v>       0.41666667       0.86111111       0.36805000 </v>
    <v>       0.36111111       0.86111111       0.40575000 </v>
    <v>       0.41666667       0.80555556       0.40575000 </v>
    <v>       0.36111111       0.80555556       0.44345000 </v>
    <v>       0.41666667       0.86111111       0.44345000 </v>
    <v>       0.36111111       0.86111111       0.48115000 </v>
    <v>       0.41666667       0.80555556       0.48115000 </v>
    <v>       0.36111111       0.80555556       0.51885000 </v>
    <v>       0.41666667       0.86111111       0.51885000 </v>
    <v>       0.36111111       0.86111111       0.55655000 </v>
    <v>       0.41666667       0.80555556       0.55655000 </v>
    <v>       0.36111111       0.80555556       0.59425000 </v>
    <v>       0.41666667       0.86111111       0.59425000 </v>
    <v>       0.36111111       0.91666667       0.36805000 </v>
    <v>       0.41666667       0.97222222       0.36805000 </v>
    <v>       0.36111111       0.97222222       0.40575000 </v>
    <v>       0.41666667       0.91666667       0.40575000 </v>
    <v>       0.36111111       0.91666667       0.44345000 </v>
    <v>       0.41666667       0.97222222       0.44345000 </v>
    <v>       0.36111111       0.97222222       0.48115000 </v>
    <v>       0.41666667       0.91666667       0.48115000 </v>
    <v>       0.36111111       0.91666667       0.51885000 </v>
    <v>       0.41666667       0.97222222       0.51885000 </v>
    <v>       0.36111111       0.97222222       0.55655000 </v>
    <v>       0.41666667       0.91666667       0.55655000 </v>
    <v>       0.36111111       0.91666667       0.59425000 </v>
    <v>       0.41666667       0.97222222       0.59425000 </v>
    <v>       0.47222222       0.02777778       0.36805000 </v>
    <v>       0.52777778       0.08333333       0.36805000 </v>
    <v>       0.47222222       0.08333333       0.40575000 </v>
    <v>       0.52777778       0.02777778       0.40575000 </v>
    <v>       0.47222222       0.02777778       0.44345000 </v>
    <v>       0.52777778       0.08333333       0.44345000 </v>
    <v>       0.47222222       0.08333333       0.48115000 </v>
    <v>       0.52777778       0.02777778       0.48115000 </v>
    <v>       0.47222222       0.02777778       0.51885000 </v>
    <v>       0.52777778       0.08333333       0.51885000 </v>
    <v>       0.47222222       0.08333333       0.55655000 </v>
    <v>       0.52777778       0.02777778       0.55655000 </v>
    <v>       0.47222222       0.02777778       0.59425000 </v>
    <v>       0.52777778       0.08333333       0.59425000 </v>
    <v>       0.47222222       0.13888889       0.36805000 </v>
    <v>       0.52777778       0.19444444       0.36805000 </v>
    <v>       0.47222222       0.19444444       0.40575000 </v>
    <v>       0.52777778       0.13888889       0.40575000 </v>
    <v>       0.47222222       0.13888889       0.44345000 </v>
    <v>       0.52777778       0.19444444       0.44345000 </v>
    <v>       0.47222222       0.19444444       0.48115000 </v>
    <v>       0.52777778       0.13888889       0.48115000 </v>
    <v>       0.47222222       0.13888889       0.51885000 </v>
    <v>       0.52777778       0.19444444       0.51885000 </v>
    <v>       0.47222222       0.19444444       0.55655000 </v>
    <v>       0.52777778       0.13888889       0.55655000 </v>
    <v>       0.47222222       0.13888889       0.59425000 </v>
    <v>       0.52777778       0.19444444       0.59425000 </v>
    <v>       0.47222222       0.25000000       0.36805000 </v>
    <v>       0.52777778       0.30555556       0.36805000 </v>
    <v>       0.47222222       0.30555556       0.40575000 </v>
    <v>       0.52777778       0.25000000       0.40575000 </v>
    <v>       0.47222222       0.25000000       0.44345000 </v>
    <v>       0.52777778       0.30555556       0.44345000 </v>
    <v>       0.47222222       0.30555556       0.48115000 </v>
    <v>       0.52777778       0.25000000       0.48115000 </v>
    <v>       0.47222222       0.25000000       0.51885000 </v>
    <v>       0.52777778       0.30555556       0.51885000 </v>
    <v>       0.47222222       0.30555556       0.55655000 </v>
    <v>       0.52777778       0.25000000       0.55655000 </v>
    <v>       0.47222222       0.25000000       0.59425000 </v>
    <v>       0.52777778       0.30555556       0.59425000 </v>
    <v>       0.47222222       0.36111111       0.36805000 </v>
    <v>       0.52777778       0.41666667       0.36805000 </v>
    <v>       0.47222222       0.41666667       0.40575000 </v>
    <v>       0.52777778       0.36111111       0.40575000 </v>
    <v>       0.47222222       0.36111111       0.44345000 </v>
    <v>       0.52777778       0.41666667       0.44345000 </v>
    <v>       0.47222222       0.41666667       0.48115000 </v>
    <v>       0.52777778       0.36111111       0.48115000 </v>
    <v>       0.47222222       0.36111111       0.51885000 </v>
    <v>       0.52777778       0.41666667       0.51885000 </v>
    <v>       0.47222222       0.41666667       0.55655000 </v>
    <v>       0.52777778       0.36111111       0.55655000 </v>
    <v>       0.47222222       0.36111111       0.59425000 </v>
    <v>       0.52777778       0.41666667       0.59425000 </v>
    <v>       0.47222222       0.47222222       0.36805000 </v>
    <v>       0.52777778       0.52777778       0.36805000 </v>
    <v>       0.47222222       0.52777778       0.40575000 </v>
    <v>       0.52777778       0.47222222       0.40575000 </v>
    <v>       0.47222222       0.47222222       0.44345000 </v>
    <v>       0.52777778       0.52777778       0.44345000 </v>
    <v>       0.47222222       0.52777778       0.48115000 </v>
    <v>       0.52777778       0.47222222       0.48115000 </v>
    <v>       0.47222222       0.47222222       0.51885000 </v>
    <v>       0.52777778       0.52777778       0.51885000 </v>
    <v>       0.47222222       0.52777778       0.55655000 </v>
    <v>       0.52777778       0.47222222       0.55655000 </v>
    <v>       0.47222222       0.47222222       0.59425000 </v>
    <v>       0.52777778       0.52777778       0.59425000 </v>
    <v>       0.47222222       0.58333333       0.36805000 </v>
    <v>       0.52777778       0.63888889       0.36805000 </v>
    <v>       0.47222222       0.63888889       0.40575000 </v>
    <v>       0.52777778       0.58333333       0.40575000 </v>
    <v>       0.47222222       0.58333333       0.44345000 </v>
    <v>       0.52777778       0.63888889       0.44345000 </v>
    <v>       0.47222222       0.63888889       0.48115000 </v>
    <v>       0.52777778       0.58333333       0.48115000 </v>
    <v>       0.47222222       0.58333333       0.51885000 </v>
    <v>       0.52777778       0.63888889       0.51885000 </v>
    <v>       0.47222222       0.63888889       0.55655000 </v>
    <v>       0.52777778       0.58333333       0.55655000 </v>
    <v>       0.47222222       0.58333333       0.59425000 </v>
    <v>       0.52777778       0.63888889       0.59425000 </v>
    <v>       0.47222222       0.69444444       0.36805000 </v>
    <v>       0.52777778       0.75000000       0.36805000 </v>
    <v>       0.47222222       0.75000000       0.40575000 </v>
    <v>       0.52777778       0.69444444       0.40575000 </v>
    <v>       0.47222222       0.69444444       0.44345000 </v>
    <v>       0.52777778       0.75000000       0.44345000 </v>
    <v>       0.47222222       0.75000000       0.48115000 </v>
    <v>       0.52777778       0.69444444       0.48115000 </v>
    <v>       0.47222222       0.69444444       0.51885000 </v>
    <v>       0.52777778       0.75000000       0.51885000 </v>
    <v>       0.47222222       0.75000000       0.55655000 </v>
    <v>       0.52777778       0.69444444       0.55655000 </v>
    <v>       0.47222222       0.69444444       0.59425000 </v>
    <v>       0.52777778       0.75000000       0.59425000 </v>
    <v>       0.47222222       0.80555556       0.36805000 </v>
    <v>       0.52777778       0.86111111       0.36805000 </v>
    <v>       0.47222222       0.86111111       0.40575000 </v>
    <v>       0.52777778       0.80555556       0.40575000 </v>
    <v>       0.47222222       0.80555556       0.44345000 </v>
    <v>       0.52777778       0.86111111       0.44345000 </v>
    <v>       0.47222222       0.86111111       0.48115000 </v>
    <v>       0.52777778       0.80555556       0.48115000 </v>
    <v>       0.47222222       0.80555556       0.51885000 </v>
    <v>       0.52777778       0.86111111       0.51885000 </v>
    <v>       0.47222222       0.86111111       0.55655000 </v>
    <v>       0.52777778       0.80555556       0.55655000 </v>
    <v>       0.47222222       0.80555556       0.59425000 </v>
    <v>       0.52777778       0.86111111       0.59425000 </v>
    <v>       0.47222222       0.91666667       0.36805000 </v>
    <v>       0.52777778       0.97222222       0.36805000 </v>
    <v>       0.47222222       0.97222222       0.40575000 </v>
    <v>       0.52777778       0.91666667       0.40575000 </v>
    <v>       0.47222222       0.91666667       0.44345000 </v>
    <v>       0.52777778       0.97222222       0.44345000 </v>
    <v>       0.47222222       0.97222222       0.48115000 </v>
    <v>       0.52777778       0.91666667       0.48115000 </v>
    <v>       0.47222222       0.91666667       0.51885000 </v>
    <v>       0.52777778       0.97222222       0.51885000 </v>
    <v>       0.47222222       0.97222222       0.55655000 </v>
    <v>       0.52777778       0.91666667       0.55655000 </v>
    <v>       0.47222222       0.91666667       0.59425000 </v>
    <v>       0.52777778       0.97222222       0.59425000 </v>
    <v>       0.58333333       0.02777778       0.36805000 </v>
    <v>       0.63888889       0.08333333       0.36805000 </v>
    <v>       0.58333333       0.08333333       0.40575000 </v>
    <v>       0.63888889       0.02777778       0.40575000 </v>
    <v>       0.58333333       0.02777778       0.44345000 </v>
    <v>       0.63888889       0.08333333       0.44345000 </v>
    <v>       0.58333333       0.08333333       0.48115000 </v>
    <v>       0.63888889       0.02777778       0.48115000 </v>
    <v>       0.58333333       0.02777778       0.51885000 </v>
    <v>       0.63888889       0.08333333       0.51885000 </v>
    <v>       0.58333333       0.08333333       0.55655000 </v>
    <v>       0.63888889       0.02777778       0.55655000 </v>
    <v>       0.58333333       0.02777778       0.59425000 </v>
    <v>       0.63888889       0.08333333       0.59425000 </v>
    <v>       0.58333333       0.13888889       0.36805000 </v>
    <v>       0.63888889       0.19444444       0.36805000 </v>
    <v>       0.58333333       0.19444444       0.40575000 </v>
    <v>       0.63888889       0.13888889       0.40575000 </v>
    <v>       0.58333333       0.13888889       0.44345000 </v>
    <v>       0.63888889       0.19444444       0.44345000 </v>
    <v>       0.58333333       0.19444444       0.48115000 </v>
    <v>       0.63888889       0.13888889       0.48115000 </v>
    <v>       0.58333333       0.13888889       0.51885000 </v>
    <v>       0.63888889       0.19444444       0.51885000 </v>
    <v>       0.58333333       0.19444444       0.55655000 </v>
    <v>       0.63888889       0.13888889       0.55655000 </v>
    <v>       0.58333333       0.13888889       0.59425000 </v>
    <v>       0.63888889       0.19444444       0.59425000 </v>
    <v>       0.58333333       0.25000000       0.36805000 </v>
    <v>       0.63888889       0.30555556       0.36805000 </v>
    <v>       0.58333333       0.30555556       0.40575000 </v>
    <v>       0.63888889       0.25000000       0.40575000 </v>
    <v>       0.58333333       0.25000000       0.44345000 </v>
    <v>       0.63888889       0.30555556       0.44345000 </v>
    <v>       0.58333333       0.30555556       0.48115000 </v>
    <v>       0.63888889       0.25000000       0.48115000 </v>
    <v>       0.58333333       0.25000000       0.51885000 </v>
    <v>       0.63888889       0.30555556       0.51885000 </v>
    <v>       0.58333333       0.30555556       0.55655000 </v>
    <v>       0.63888889       0.25000000       0.55655000 </v>
    <v>       0.58333333       0.25000000       0.59425000 </v>
    <v>       0.63888889       0.30555556       0.59425000 </v>
    <v>       0.58333333       0.36111111       0.36805000 </v>
    <v>       0.63888889       0.41666667       0.36805000 </v>
    <v>       0.58333333       0.41666667       0.40575000 </v>
    <v>       0.63888889       0.36111111       0.40575000 </v>
    <v>       0.58333333       0.36111111       0.44345000 </v>
    <v>       0.63888889       0.41666667       0.44345000 </v>
    <v>       0.58333333       0.41666667       0.48115000 </v>
    <v>       0.63888889       0.36111111       0.48115000 </v>
    <v>       0.58333333       0.36111111       0.51885000 </v>
    <v>       0.63888889       0.41666667       0.51885000 </v>
    <v>       0.58333333       0.41666667       0.55655000 </v>
    <v>       0.63888889       0.36111111       0.55655000 </v>
    <v>       0.58333333       0.36111111       0.59425000 </v>
    <v>       0.63888889       0.41666667       0.59425000 </v>
    <v>       0.58333333       0.47222222       0.36805000 </v>
    <v>       0.63888889       0.52777778       0.36805000 </v>
    <v>       0.58333333       0.52777778       0.40575000 </v>
    <v>       0.63888889       0.47222222       0.40575000 </v>
    <v>       0.58333333       0.47222222       0.44345000 </v>
    <v>       0.63888889       0.52777778       0.44345000 </v>
    <v>       0.58333333       0.52777778       0.48115000 </v>
    <v>       0.63888889       0.47222222       0.48115000 </v>
    <v>       0.58333333       0.47222222       0.51885000 </v>
    <v>       0.63888889       0.52777778       0.51885000 </v>
    <v>       0.58333333       0.52777778       0.55655000 </v>
    <v>       0.63888889       0.47222222       0.55655000 </v>
    <v>       0.58333333       0.47222222       0.59425000 </v>
    <v>       0.63888889       0.52777778       0.59425000 </v>
    <v>       0.58333333       0.58333333       0.36805000 </v>
    <v>       0.63888889       0.63888889       0.36805000 </v>
    <v>       0.58333333       0.63888889       0.40575000 </v>
    <v>       0.63888889       0.58333333       0.40575000 </v>
    <v>       0.58333333       0.58333333       0.44345000 </v>
    <v>       0.63888889       0.63888889       0.44345000 </v>
    <v>       0.58333333       0.63888889       0.48115000 </v>
    <v>       0.63888889       0.58333333       0.48115000 </v>
    <v>       0.58333333       0.58333333       0.51885000 </v>
    <v>       0.63888889       0.63888889       0.51885000 </v>
    <v>       0.58333333       0.63888889       0.55655000 </v>
    <v>       0.63888889       0.58333333       0.55655000 </v>
    <v>       0.58333333       0.58333333       0.59425000 </v>
    <v>       0.63888889       0.63888889       0.59425000 </v>
    <v>       0.58333333       0.69444444       0.36805000 </v>
    <v>       0.63888889       0.75000000       0.36805000 </v>
    <v>       0.58333333       0.75000000       0.40575000 </v>
    <v>       0.63888889       0.69444444       0.40575000 </v>
    <v>       0.58333333       0.69444444       0.44345000 </v>
    <v>       0.63888889       0.75000000       0.44345000 </v>
    <v>       0.58333333       0.75000000       0.48115000 </v>
    <v>       0.63888889       0.69444444       0.48115000 </v>
    <v>       0.58333333       0.69444444       0.51885000 </v>
    <v>       0.63888889       0.75000000       0.51885000 </v>
    <v>       0.58333333       0.75000000       0.55655000 </v>
    <v>       0.63888889       0.69444444       0.55655000 </v>
    <v>       0.58333333       0.69444444       0.59425000 </v>
    <v>       0.63888889       0.75000000       0.59425000 </v>
    <v>       0.58333333       0.80555556       0.36805000 </v>
    <v>       0.63888889       0.86111111       0.36805000 </v>
    <v>       0.58333333       0.86111111       0.40575000 </v>
    <v>       0.63888889       0.80555556       0.40575000 </v>
    <v>       0.58333333       0.80555556       0.44345000 </v>
    <v>       0.63888889       0.86111111       0.44345000 </v>
    <v>       0.58333333       0.86111111       0.48115000 </v>
    <v>       0.63888889       0.80555556       0.48115000 </v>
    <v>       0.58333333       0.80555556       0.51885000 </v>
    <v>       0.63888889       0.86111111       0.51885000 </v>
    <v>       0.58333333       0.86111111       0.55655000 </v>
    <v>       0.63888889       0.80555556       0.55655000 </v>
    <v>       0.58333333       0.80555556       0.59425000 </v>
    <v>       0.63888889       0.86111111       0.59425000 </v>
    <v>       0.58333333       0.91666667       0.36805000 </v>
    <v>       0.63888889       0.97222222       0.36805000 </v>
    <v>       0.58333333       0.97222222       0.40575000 </v>
    <v>       0.63888889       0.91666667       0.40575000 </v>
    <v>       0.58333333       0.91666667       0.44345000 </v>
    <v>       0.63888889       0.97222222       0.44345000 </v>
    <v>       0.58333333       0.97222222       0.48115000 </v>
    <v>       0.63888889       0.91666667       0.48115000 </v>
    <v>       0.58333333       0.91666667       0.51885000 </v>
    <v>       0.63888889       0.97222222       0.51885000 </v>
    <v>       0.58333333       0.97222222       0.55655000 </v>
    <v>       0.63888889       0.91666667       0.55655000 </v>
    <v>       0.58333333       0.91666667       0.59425000 </v>
    <v>       0.63888889       0.97222222       0.59425000 </v>
    <v>       0.69444444       0.02777778       0.36805000 </v>
    <v>       0.75000000       0.08333333       0.36805000 </v>
    <v>       0.69444444       0.08333333       0.40575000 </v>
    <v>       0.75000000       0.02777778       0.40575000 </v>
    <v>       0.69444444       0.02777778       0.44345000 </v>
    <v>       0.75000000       0.08333333       0.44345000 </v>
    <v>       0.69444444       0.08333333       0.48115000 </v>
    <v>       0.75000000       0.02777778       0.48115000 </v>
    <v>       0.69444444       0.02777778       0.51885000 </v>
    <v>       0.75000000       0.08333333       0.51885000 </v>
    <v>       0.69444444       0.08333333       0.55655000 </v>
    <v>       0.75000000       0.02777778       0.55655000 </v>
    <v>       0.69444444       0.02777778       0.59425000 </v>
    <v>       0.75000000       0.08333333       0.59425000 </v>
    <v>       0.69444444       0.13888889       0.36805000 </v>
    <v>       0.75000000       0.19444444       0.36805000 </v>
    <v>       0.69444444       0.19444444       0.40575000 </v>
    <v>       0.75000000       0.13888889       0.40575000 </v>
    <v>       0.69444444       0.13888889       0.44345000 </v>
    <v>       0.75000000       0.19444444       0.44345000 </v>
    <v>       0.69444444       0.19444444       0.48115000 </v>
    <v>       0.75000000       0.13888889       0.48115000 </v>
    <v>       0.69444444       0.13888889       0.51885000 </v>
    <v>       0.75000000       0.19444444       0.51885000 </v>
    <v>       0.69444444       0.19444444       0.55655000 </v>
    <v>       0.75000000       0.13888889       0.55655000 </v>
    <v>       0.69444444       0.13888889       0.59425000 </v>
    <v>       0.75000000       0.19444444       0.59425000 </v>
    <v>       0.69444444       0.25000000       0.36805000 </v>
    <v>       0.75000000       0.30555556       0.36805000 </v>
    <v>       0.69444444       0.30555556       0.40575000 </v>
    <v>       0.75000000       0.25000000       0.40575000 </v>
    <v>       0.69444444       0.25000000       0.44345000 </v>
    <v>       0.75000000       0.30555556       0.44345000 </v>
    <v>       0.69444444       0.30555556       0.48115000 </v>
    <v>       0.75000000       0.25000000       0.48115000 </v>
    <v>       0.69444444       0.25000000       0.51885000 </v>
    <v>       0.75000000       0.30555556       0.51885000 </v>
    <v>       0.69444444       0.30555556       0.55655000 </v>
    <v>       0.75000000       0.25000000       0.55655000 </v>
    <v>       0.69444444       0.25000000       0.59425000 </v>
    <v>       0.75000000       0.30555556       0.59425000 </v>
    <v>       0.69444444       0.36111111       0.36805000 </v>
    <v>       0.75000000       0.41666667       0.36805000 </v>
    <v>       0.69444444       0.41666667       0.40575000 </v>
    <v>       0.75000000       0.36111111       0.40575000 </v>
    <v>       0.69444444       0.36111111       0.44345000 </v>
    <v>       0.75000000       0.41666667       0.44345000 </v>
    <v>       0.69444444       0.41666667       0.48115000 </v>
    <v>       0.75000000       0.36111111       0.48115000 </v>
    <v>       0.69444444       0.36111111       0.51885000 </v>
    <v>       0.75000000       0.41666667       0.51885000 </v>
    <v>       0.69444444       0.41666667       0.55655000 </v>
    <v>       0.75000000       0.36111111       0.55655000 </v>
    <v>       0.69444444       0.36111111       0.59425000 </v>
    <v>       0.75000000       0.41666667       0.59425000 </v>
    <v>       0.69444444       0.47222222       0.36805000 </v>
    <v>       0.75000000       0.52777778       0.36805000 </v>
    <v>       0.69444444       0.52777778       0.40575000 </v>
    <v>       0.75000000       0.47222222       0.40575000 </v>
    <v>       0.69444444       0.47222222       0.44345000 </v>
    <v>       0.75000000       0.52777778       0.44345000 </v>
    <v>       0.69444444       0.52777778       0.48115000 </v>
    <v>       0.75000000       0.47222222       0.48115000 </v>
    <v>       0.69444444       0.47222222       0.51885000 </v>
    <v>       0.75000000       0.52777778       0.51885000 </v>
    <v>       0.69444444       0.52777778       0.55655000 </v>
    <v>       0.75000000       0.47222222       0.55655000 </v>
    <v>       0.69444444       0.47222222       0.59425000 </v>
    <v>       0.75000000       0.52777778       0.59425000 </v>
    <v>       0.69444444       0.58333333       0.36805000 </v>
    <v>       0.75000000       0.63888889       0.36805000 </v>
    <v>       0.69444444       0.63888889       0.40575000 </v>
    <v>       0.75000000       0.58333333       0.40575000 </v>
    <v>       0.69444444       0.58333333       0.44345000 </v>
    <v>       0.75000000       0.63888889       0.44345000 </v>
    <v>       0.69444444       0.63888889       0.48115000 </v>
    <v>       0.75000000       0.58333333       0.48115000 </v>
    <v>       0.69444444       0.58333333       0.51885000 </v>
    <v>       0.75000000       0.63888889       0.51885000 </v>
    <v>       0.69444444       0.63888889       0.55655000 </v>
    <v>       0.75000000       0.58333333       0.55655000 </v>
    <v>       0.69444444       0.58333333       0.59425000 </v>
    <v>       0.75000000       0.63888889       0.59425000 </v>
    <v>       0.69444444       0.69444444       0.36805000 </v>
    <v>       0.75000000       0.75000000       0.36805000 </v>
    <v>       0.69444444       0.75000000       0.40575000 </v>
    <v>       0.75000000       0.69444444       0.40575000 </v>
    <v>       0.69444444       0.69444444       0.44345000 </v>
    <v>       0.75000000       0.75000000       0.44345000 </v>
    <v>       0.69444444       0.75000000       0.48115000 </v>
    <v>       0.75000000       0.69444444       0.48115000 </v>
    <v>       0.69444444       0.69444444       0.51885000 </v>
    <v>       0.75000000       0.75000000       0.51885000 </v>
    <v>       0.69444444       0.75000000       0.55655000 </v>
    <v>       0.75000000       0.69444444       0.55655000 </v>
    <v>       0.69444444       0.69444444       0.59425000 </v>
    <v>       0.75000000       0.75000000       0.59425000 </v>
    <v>       0.69444444       0.80555556       0.36805000 </v>
    <v>       0.75000000       0.86111111       0.36805000 </v>
    <v>       0.69444444       0.86111111       0.40575000 </v>
    <v>       0.75000000       0.80555556       0.40575000 </v>
    <v>       0.69444444       0.80555556       0.44345000 </v>
    <v>       0.75000000       0.86111111       0.44345000 </v>
    <v>       0.69444444       0.86111111       0.48115000 </v>
    <v>       0.75000000       0.80555556       0.48115000 </v>
    <v>       0.69444444       0.80555556       0.51885000 </v>
    <v>       0.75000000       0.86111111       0.51885000 </v>
    <v>       0.69444444       0.86111111       0.55655000 </v>
    <v>       0.75000000       0.80555556       0.55655000 </v>
    <v>       0.69444444       0.80555556       0.59425000 </v>
    <v>       0.75000000       0.86111111       0.59425000 </v>
    <v>       0.69444444       0.91666667       0.36805000 </v>
    <v>       0.75000000       0.97222222       0.36805000 </v>
    <v>       0.69444444       0.97222222       0.40575000 </v>
    <v>       0.75000000       0.91666667       0.40575000 </v>
    <v>       0.69444444       0.91666667       0.44345000 </v>
    <v>       0.75000000       0.97222222       0.44345000 </v>
    <v>       0.69444444       0.97222222       0.48115000 </v>
    <v>       0.75000000       0.91666667       0.48115000 </v>
    <v>       0.69444444       0.91666667       0.51885000 </v>
    <v>       0.75000000       0.97222222       0.51885000 </v>
    <v>       0.69444444       0.97222222       0.55655000 </v>
    <v>       0.75000000       0.91666667       0.55655000 </v>
    <v>       0.69444444       0.91666667       0.59425000 </v>
    <v>       0.75000000       0.97222222       0.59425000 </v>
    <v>       0.80555556       0.02777778       0.36805000 </v>
    <v>       0.86111111       0.08333333       0.36805000 </v>
    <v>       0.80555556       0.08333333       0.40575000 </v>
    <v>       0.86111111       0.02777778       0.40575000 </v>
    <v>       0.80555556       0.02777778       0.44345000 </v>
    <v>       0.86111111       0.08333333       0.44345000 </v>
    <v>       0.80555556       0.08333333       0.48115000 </v>
    <v>       0.86111111       0.02777778       0.48115000 </v>
    <v>       0.80555556       0.02777778       0.51885000 </v>
    <v>       0.86111111       0.08333333       0.51885000 </v>
    <v>       0.80555556       0.08333333       0.55655000 </v>
    <v>       0.86111111       0.02777778       0.55655000 </v>
    <v>       0.80555556       0.02777778       0.59425000 </v>
    <v>       0.86111111       0.08333333       0.59425000 </v>
    <v>       0.80555556       0.13888889       0.36805000 </v>
    <v>       0.86111111       0.19444444       0.36805000 </v>
    <v>       0.80555556       0.19444444       0.40575000 </v>
    <v>       0.86111111       0.13888889       0.40575000 </v>
    <v>       0.80555556       0.13888889       0.44345000 </v>
    <v>       0.86111111       0.19444444       0.44345000 </v>
    <v>       0.80555556       0.19444444       0.48115000 </v>
    <v>       0.86111111       0.13888889       0.48115000 </v>
    <v>       0.80555556       0.13888889       0.51885000 </v>
    <v>       0.86111111       0.19444444       0.51885000 </v>
    <v>       0.80555556       0.19444444       0.55655000 </v>
    <v>       0.86111111       0.13888889       0.55655000 </v>
    <v>       0.80555556       0.13888889       0.59425000 </v>
    <v>       0.86111111       0.19444444       0.59425000 </v>
    <v>       0.80555556       0.25000000       0.36805000 </v>
    <v>       0.86111111       0.30555556       0.36805000 </v>
    <v>       0.80555556       0.30555556       0.40575000 </v>
    <v>       0.86111111       0.25000000       0.40575000 </v>
    <v>       0.80555556       0.25000000       0.44345000 </v>
    <v>       0.86111111       0.30555556       0.44345000 </v>
    <v>       0.80555556       0.30555556       0.48115000 </v>
    <v>       0.86111111       0.25000000       0.48115000 </v>
    <v>       0.80555556       0.25000000       0.51885000 </v>
    <v>       0.86111111       0.30555556       0.51885000 </v>
    <v>       0.80555556       0.30555556       0.55655000 </v>
    <v>       0.86111111       0.25000000       0.55655000 </v>
    <v>       0.80555556       0.25000000       0.59425000 </v>
    <v>       0.86111111       0.30555556       0.59425000 </v>
    <v>       0.80555556       0.36111111       0.36805000 </v>
    <v>       0.86111111       0.41666667       0.36805000 </v>
    <v>       0.80555556       0.41666667       0.40575000 </v>
    <v>       0.86111111       0.36111111       0.40575000 </v>
    <v>       0.80555556       0.36111111       0.44345000 </v>
    <v>       0.86111111       0.41666667       0.44345000 </v>
    <v>       0.80555556       0.41666667       0.48115000 </v>
    <v>       0.86111111       0.36111111       0.48115000 </v>
    <v>       0.80555556       0.36111111       0.51885000 </v>
    <v>       0.86111111       0.41666667       0.51885000 </v>
    <v>       0.80555556       0.41666667       0.55655000 </v>
    <v>       0.86111111       0.36111111       0.55655000 </v>
    <v>       0.80555556       0.36111111       0.59425000 </v>
    <v>       0.86111111       0.41666667       0.59425000 </v>
    <v>       0.80555556       0.47222222       0.36805000 </v>
    <v>       0.86111111       0.52777778       0.36805000 </v>
    <v>       0.80555556       0.52777778       0.40575000 </v>
    <v>       0.86111111       0.47222222       0.40575000 </v>
    <v>       0.80555556       0.47222222       0.44345000 </v>
    <v>       0.86111111       0.52777778       0.44345000 </v>
    <v>       0.80555556       0.52777778       0.48115000 </v>
    <v>       0.86111111       0.47222222       0.48115000 </v>
    <v>       0.80555556       0.47222222       0.51885000 </v>
    <v>       0.86111111       0.52777778       0.51885000 </v>
    <v>       0.80555556       0.52777778       0.55655000 </v>
    <v>       0.86111111       0.47222222       0.55655000 </v>
    <v>       0.80555556       0.47222222       0.59425000 </v>
    <v>       0.86111111       0.52777778       0.59425000 </v>
    <v>       0.80555556       0.58333333       0.36805000 </v>
    <v>       0.86111111       0.63888889       0.36805000 </v>
    <v>       0.80555556       0.63888889       0.40575000 </v>
    <v>       0.86111111       0.58333333       0.40575000 </v>
    <v>       0.80555556       0.58333333       0.44345000 </v>
    <v>       0.86111111       0.63888889       0.44345000 </v>
    <v>       0.80555556       0.63888889       0.48115000 </v>
    <v>       0.86111111       0.58333333       0.48115000 </v>
    <v>       0.80555556       0.58333333       0.51885000 </v>
    <v>       0.86111111       0.63888889       0.51885000 </v>
    <v>       0.80555556       0.63888889       0.55655000 </v>
    <v>       0.86111111       0.58333333       0.55655000 </v>
    <v>       0.80555556       0.58333333       0.59425000 </v>
    <v>       0.86111111       0.63888889       0.59425000 </v>
    <v>       0.80555556       0.69444444       0.36805000 </v>
    <v>       0.86111111       0.75000000       0.36805000 </v>
    <v>       0.80555556       0.75000000       0.40575000 </v>
    <v>       0.86111111       0.69444444       0.40575000 </v>
    <v>       0.80555556       0.69444444       0.44345000 </v>
    <v>       0.86111111       0.75000000       0.44345000 </v>
    <v>       0.80555556       0.75000000       0.48115000 </v>
    <v>       0.86111111       0.69444444       0.48115000 </v>
    <v>       0.80555556       0.69444444       0.51885000 </v>
    <v>       0.86111111       0.75000000       0.51885000 </v>
    <v>       0.80555556       0.75000000       0.55655000 </v>
    <v>       0.86111111       0.69444444       0.55655000 </v>
    <v>       0.80555556       0.69444444       0.59425000 </v>
    <v>       0.86111111       0.75000000       0.59425000 </v>
    <v>       0.80555556       0.80555556       0.36805000 </v>
    <v>       0.86111111       0.86111111       0.36805000 </v>
    <v>       0.80555556       0.86111111       0.40575000 </v>
    <v>       0.86111111       0.80555556       0.40575000 </v>
    <v>       0.80555556       0.80555556       0.44345000 </v>
    <v>       0.86111111       0.86111111       0.44345000 </v>
    <v>       0.80555556       0.86111111       0.48115000 </v>
    <v>       0.86111111       0.80555556       0.48115000 </v>
    <v>       0.80555556       0.80555556       0.51885000 </v>
    <v>       0.86111111       0.86111111       0.51885000 </v>
    <v>       0.80555556       0.86111111       0.55655000 </v>
    <v>       0.86111111       0.80555556       0.55655000 </v>
    <v>       0.80555556       0.80555556       0.59425000 </v>
    <v>       0.86111111       0.86111111       0.59425000 </v>
    <v>       0.80555556       0.91666667       0.36805000 </v>
    <v>       0.86111111       0.97222222       0.36805000 </v>
    <v>       0.80555556       0.97222222       0.40575000 </v>
    <v>       0.86111111       0.91666667       0.40575000 </v>
    <v>       0.80555556       0.91666667       0.44345000 </v>
    <v>       0.86111111       0.97222222       0.44345000 </v>
    <v>       0.80555556       0.97222222       0.48115000 </v>
    <v>       0.86111111       0.91666667       0.48115000 </v>
    <v>       0.80555556       0.91666667       0.51885000 </v>
    <v>       0.86111111       0.97222222       0.51885000 </v>
    <v>       0.80555556       0.97222222       0.55655000 </v>
    <v>       0.86111111       0.91666667       0.55655000 </v>
    <v>       0.80555556       0.91666667       0.59425000 </v>
    <v>       0.86111111       0.97222222       0.59425000 </v>
    <v>       0.91666667       0.02777778       0.36805000 </v>
    <v>       0.97222222       0.08333333       0.36805000 </v>
    <v>       0.91666667       0.08333333       0.40575000 </v>
    <v>       0.97222222       0.02777778       0.40575000 </v>
    <v>       0.91666667       0.02777778       0.44345000 </v>
    <v>       0.97222222       0.08333333       0.44345000 </v>
    <v>       0.91666667       0.08333333       0.48115000 </v>
    <v>       0.97222222       0.02777778       0.48115000 </v>
    <v>       0.91666667       0.02777778       0.51885000 </v>
    <v>       0.97222222       0.08333333       0.51885000 </v>
    <v>       0.91666667       0.08333333       0.55655000 </v>
    <v>       0.97222222       0.02777778       0.55655000 </v>
    <v>       0.91666667       0.02777778       0.59425000 </v>
    <v>       0.97222222       0.08333333       0.59425000 </v>
    <v>       0.91666667       0.13888889       0.36805000 </v>
    <v>       0.97222222       0.19444444       0.36805000 </v>
    <v>       0.91666667       0.19444444       0.40575000 </v>
    <v>       0.97222222       0.13888889       0.40575000 </v>
    <v>       0.91666667       0.13888889       0.44345000 </v>
    <v>       0.97222222       0.19444444       0.44345000 </v>
    <v>       0.91666667       0.19444444       0.48115000 </v>
    <v>       0.97222222       0.13888889       0.48115000 </v>
    <v>       0.91666667       0.13888889       0.51885000 </v>
    <v>       0.97222222       0.19444444       0.51885000 </v>
    <v>       0.91666667       0.19444444       0.55655000 </v>
    <v>       0.97222222       0.13888889       0.55655000 </v>
    <v>       0.91666667       0.13888889       0.59425000 </v>
    <v>       0.97222222       0.19444444       0.59425000 </v>
    <v>       0.91666667       0.25000000       0.36805000 </v>
    <v>       0.97222222       0.30555556       0.36805000 </v>
    <v>       0.91666667       0.30555556       0.40575000 </v>
    <v>       0.97222222       0.25000000       0.40575000 </v>
    <v>       0.91666667       0.25000000       0.44345000 </v>
    <v>       0.97222222       0.30555556       0.44345000 </v>
    <v>       0.91666667       0.30555556       0.48115000 </v>
    <v>       0.97222222       0.25000000       0.48115000 </v>
    <v>       0.91666667       0.25000000       0.51885000 </v>
    <v>       0.97222222       0.30555556       0.51885000 </v>
    <v>       0.91666667       0.30555556       0.55655000 </v>
    <v>       0.97222222       0.25000000       0.55655000 </v>
    <v>       0.91666667       0.25000000       0.59425000 </v>
    <v>       0.97222222       0.30555556       0.59425000 </v>
    <v>       0.91666667       0.36111111       0.36805000 </v>
    <v>       0.97222222       0.41666667       0.36805000 </v>
    <v>       0.91666667       0.41666667       0.40575000 </v>
    <v>       0.97222222       0.36111111       0.40575000 </v>
    <v>       0.91666667       0.36111111       0.44345000 </v>
    <v>       0.97222222       0.41666667       0.44345000 </v>
    <v>       0.91666667       0.41666667       0.48115000 </v>
    <v>       0.97222222       0.36111111       0.48115000 </v>
    <v>       0.91666667       0.36111111       0.51885000 </v>
    <v>       0.97222222       0.41666667       0.51885000 </v>
    <v>       0.91666667       0.41666667       0.55655000 </v>
    <v>       0.97222222       0.36111111       0.55655000 </v>
    <v>       0.91666667       0.36111111       0.59425000 </v>
    <v>       0.97222222       0.41666667       0.59425000 </v>
    <v>       0.91666667       0.47222222       0.36805000 </v>
    <v>       0.97222222       0.52777778       0.36805000 </v>
    <v>       0.91666667       0.52777778       0.40575000 </v>
    <v>       0.97222222       0.47222222       0.40575000 </v>
    <v>       0.91666667       0.47222222       0.44345000 </v>
    <v>       0.97222222       0.52777778       0.44345000 </v>
    <v>       0.91666667       0.52777778       0.48115000 </v>
    <v>       0.97222222       0.47222222       0.48115000 </v>
    <v>       0.91666667       0.47222222       0.51885000 </v>
    <v>       0.97222222       0.52777778       0.51885000 </v>
    <v>       0.91666667       0.52777778       0.55655000 </v>
    <v>       0.97222222       0.47222222       0.55655000 </v>
    <v>       0.91666667       0.47222222       0.59425000 </v>
    <v>       0.97222222       0.52777778       0.59425000 </v>
    <v>       0.91666667       0.58333333       0.36805000 </v>
    <v>       0.97222222       0.63888889       0.36805000 </v>
    <v>       0.91666667       0.63888889       0.40575000 </v>
    <v>       0.97222222       0.58333333       0.40575000 </v>
    <v>       0.91666667       0.58333333       0.44345000 </v>
    <v>       0.97222222       0.63888889       0.44345000 </v>
    <v>       0.91666667       0.63888889       0.48115000 </v>
    <v>       0.97222222       0.58333333       0.48115000 </v>
    <v>       0.91666667       0.58333333       0.51885000 </v>
    <v>       0.97222222       0.63888889       0.51885000 </v>
    <v>       0.91666667       0.63888889       0.55655000 </v>
    <v>       0.97222222       0.58333333       0.55655000 </v>
    <v>       0.91666667       0.58333333       0.59425000 </v>
    <v>       0.97222222       0.63888889       0.59425000 </v>
    <v>       0.91666667       0.69444444       0.36805000 </v>
    <v>       0.97222222       0.75000000       0.36805000 </v>
    <v>       0.91666667       0.75000000       0.40575000 </v>
    <v>       0.97222222       0.69444444       0.40575000 </v>
    <v>       0.91666667       0.69444444       0.44345000 </v>
    <v>       0.97222222       0.75000000       0.44345000 </v>
    <v>       0.91666667       0.75000000       0.48115000 </v>
    <v>       0.97222222       0.69444444       0.48115000 </v>
    <v>       0.91666667       0.69444444       0.51885000 </v>
    <v>       0.97222222       0.75000000       0.51885000 </v>
    <v>       0.91666667       0.75000000       0.55655000 </v>
    <v>       0.97222222       0.69444444       0.55655000 </v>
    <v>       0.91666667       0.69444444       0.59425000 </v>
    <v>       0.97222222       0.75000000       0.59425000 </v>
    <v>       0.91666667       0.80555556       0.36805000 </v>
    <v>       0.97222222       0.86111111       0.36805000 </v>
    <v>       0.91666667       0.86111111       0.40575000 </v>
    <v>       0.97222222       0.80555556       0.40575000 </v>
    <v>       0.91666667       0.80555556       0.44345000 </v>
    <v>       0.97222222       0.86111111       0.44345000 </v>
    <v>       0.91666667       0.86111111       0.48115000 </v>
    <v>       0.97222222       0.80555556       0.48115000 </v>
    <v>       0.91666667       0.80555556       0.51885000 </v>
    <v>       0.97222222       0.86111111       0.51885000 </v>
    <v>       0.91666667       0.86111111       0.55655000 </v>
    <v>       0.97222222       0.80555556       0.55655000 </v>
    <v>       0.91666667       0.80555556       0.59425000 </v>
    <v>       0.97222222       0.86111111       0.59425000 </v>
    <v>       0.91666667       0.91666667       0.36805000 </v>
    <v>       0.97222222       0.97222222       0.36805000 </v>
    <v>       0.91666667       0.97222222       0.40575000 </v>
    <v>       0.97222222       0.91666667       0.40575000 </v>
    <v>       0.91666667       0.91666667       0.44345000 </v>
    <v>       0.97222222       0.97222222       0.44345000 </v>
    <v>       0.91666667       0.97222222       0.48115000 </v>
    <v>       0.97222222       0.91666667       0.48115000 </v>
    <v>       0.91666667       0.91666667       0.51885000 </v>
    <v>       0.97222222       0.97222222       0.51885000 </v>
    <v>       0.91666667       0.97222222       0.55655000 </v>
    <v>       0.97222222       0.91666667       0.55655000 </v>
    <v>       0.91666667       0.91666667       0.59425000 </v>
    <v>       0.97222222       0.97222222       0.59425000 </v>
    <v>       0.39787798       0.44208665       0.72545000 </v>
    <v>       0.42859614       0.46901049       0.71860500 </v>
    <v>       0.43806398       0.46586899       0.68869104 </v>
    <v>       0.46878078       0.49279546       0.68184800 </v>
    <v>       0.41452505       0.47211264       0.67696704 </v>
    <v>       0.50585662       0.51206920       0.64144804 </v>
    <v>       0.45213504       0.46276617       0.73033102 </v>
    <v>       0.40665031       0.41495149       0.72114600 </v>
    <v>       0.49231969       0.48655113       0.69357104 </v>
    <v>       0.46000978       0.51992732       0.68615200 </v>
    <v>       0.41982514       0.49614232       0.72291102 </v>
    <v>       0.44683495       0.43873646       0.68438704 </v>
    <v>       0.37434041       0.44832765       0.71372600 </v>
    <v>       0.39130156       0.44426858       0.74623402 </v>
    <v>       0.47972370       0.48916581       0.64727200 </v>
   </varray>
  </structure>
  <varray name="forces" >
   <v>      -0.00442184      -0.00450761      -2.49513533 </v>
   <v>      -0.00002691      -0.00004557      -2.50859991 </v>
   <v>      -0.00530721       0.00057278      -0.26277494 </v>
   <v>       0.00041629      -0.00545404      -0.26269183 </v>
   <v>      -0.01290380      -0.01329735      -0.03207118 </v>
   <v>       0.00016782       0.00000484      -0.07396400 </v>
   <v>      -0.01613500       0.00043262       0.01303581 </v>
   <v>       0.00013963      -0.01632256       0.01308958 </v>
   <v>      -0.00493239      -0.00548358      -0.02160086 </v>
   <v>      -0.00000932       0.00000402       0.04509655 </v>
   <v>       0.03340780       0.00004276       0.25598591 </v>
   <v>       0.00015075       0.03342658       0.25628614 </v>
   <v>      -0.02722631      -0.02780401       2.50175581 </v>
   <v>      -0.00015225      -0.00028102       2.46744817 </v>
   <v>      -0.00545698       0.00523961      -2.49585162 </v>
   <v>       0.00045105       0.04377654      -2.48827013 </v>
   <v>      -0.03770827      -0.03825764      -0.25430038 </v>
   <v>      -0.00001038       0.00560755      -0.26267843 </v>
   <v>      -0.01402746       0.01394681      -0.03271621 </v>
   <v>       0.00026872       0.03354056      -0.00923260 </v>
   <v>      -0.00579468      -0.00644776       0.03127820 </v>
   <v>       0.00019438       0.01671068       0.01271174 </v>
   <v>      -0.00615590       0.00594157      -0.02119697 </v>
   <v>       0.00007377      -0.01713341      -0.00351006 </v>
   <v>      -0.01304906      -0.01370229       0.27881333 </v>
   <v>       0.00007600      -0.03344017       0.25648590 </v>
   <v>      -0.02888705       0.02816500       2.50279705 </v>
   <v>       0.00037249      -0.00661472       2.48847287 </v>
   <v>       0.04399132       0.00011784      -2.48770611 </v>
   <v>       0.00040390      -0.04331300      -2.48819138 </v>
   <v>      -0.03754855       0.03819232      -0.25431063 </v>
   <v>       0.00031240       0.00008413      -0.22780267 </v>
   <v>       0.03373499      -0.00003575      -0.00846439 </v>
   <v>       0.00028506      -0.03326202      -0.00989558 </v>
   <v>      -0.00493787       0.00655904       0.03152048 </v>
   <v>       0.00069749       0.00047106      -0.03530015 </v>
   <v>      -0.01684529      -0.00020643      -0.00429305 </v>
   <v>       0.00035871       0.01721966      -0.00232960 </v>
   <v>      -0.01318201       0.01407732       0.27933829 </v>
   <v>       0.00034782       0.00027910       0.31882235 </v>
   <v>      -0.00608126       0.00009551       2.48784321 </v>
   <v>       0.00076536       0.00721117       2.48867506 </v>
   <v>      -0.00579922      -0.00516937      -2.49661964 </v>
   <v>      -0.00143571       0.00137642      -2.50849641 </v>
   <v>      -0.00742815      -0.00026342      -0.26210639 </v>
   <v>      -0.00004464      -0.00538034      -0.26273699 </v>
   <v>      -0.01395034      -0.01397479      -0.03301554 </v>
   <v>       0.00087290       0.00016363      -0.07276658 </v>
   <v>      -0.01722951       0.00038284       0.01237028 </v>
   <v>      -0.00050851      -0.01707124       0.01263799 </v>
   <v>      -0.00589974      -0.00585144      -0.02111703 </v>
   <v>      -0.00007903      -0.00016425       0.04398183 </v>
   <v>       0.03290905       0.00016461       0.25585649 </v>
   <v>      -0.00025742       0.03293562       0.25615047 </v>
   <v>      -0.02744497      -0.02780593       2.50276004 </v>
   <v>      -0.00014835       0.00044888       2.46813091 </v>
   <v>      -0.00501609       0.00578874      -2.50010200 </v>
   <v>      -0.00271754       0.04329738      -2.48794630 </v>
   <v>      -0.04048381      -0.03803702      -0.25278259 </v>
   <v>       0.00134960       0.00617656      -0.26575271 </v>
   <v>      -0.01322849       0.01443739      -0.03492445 </v>
   <v>       0.00134273       0.03381068      -0.00684988 </v>
   <v>      -0.00809595      -0.00616084       0.03046640 </v>
   <v>       0.00170427       0.01671859       0.01280435 </v>
   <v>      -0.00557941       0.00552372      -0.01909296 </v>
   <v>      -0.00031565      -0.01673093      -0.00531230 </v>
   <v>      -0.01555744      -0.01345401       0.27729176 </v>
   <v>       0.00143816      -0.03263381       0.25798938 </v>
   <v>      -0.02779448       0.02772571       2.50464678 </v>
   <v>      -0.00195882      -0.00723999       2.48778306 </v>
   <v>       0.04357741      -0.00054898      -2.49006222 </v>
   <v>       0.00020937      -0.04471781      -2.48760747 </v>
   <v>      -0.03788376       0.03805322      -0.25426883 </v>
   <v>       0.00026593      -0.00100992      -0.22893020 </v>
   <v>       0.03392618       0.00021478      -0.01079134 </v>
   <v>       0.00022295      -0.03376384      -0.00969174 </v>
   <v>      -0.00478802       0.00523733       0.03164863 </v>
   <v>       0.00067613      -0.00004288      -0.03500958 </v>
   <v>      -0.01651750       0.00061822      -0.00205304 </v>
   <v>      -0.00010224       0.01708507      -0.00341403 </v>
   <v>      -0.01293367       0.01356725       0.27901824 </v>
   <v>       0.00070224      -0.00029655       0.31894303 </v>
   <v>      -0.00703173       0.00012091       2.48901940 </v>
   <v>       0.00118671       0.00631773       2.48927791 </v>
   <v>      -0.00525396      -0.00537922      -2.49525317 </v>
   <v>       0.00040389       0.00007504      -2.50855331 </v>
   <v>      -0.00550270       0.00034435      -0.26284478 </v>
   <v>       0.00029947      -0.00557041      -0.26275132 </v>
   <v>      -0.01360487      -0.01384238      -0.03171390 </v>
   <v>       0.00030899      -0.00003559      -0.07351997 </v>
   <v>      -0.01661768       0.00051190       0.01239310 </v>
   <v>       0.00041323      -0.01652609       0.01214864 </v>
   <v>      -0.00599817      -0.00633714      -0.02271179 </v>
   <v>       0.00029210       0.00000157       0.04463717 </v>
   <v>       0.03373955      -0.00001271       0.25678731 </v>
   <v>       0.00038195       0.03386387       0.25611607 </v>
   <v>      -0.02734750      -0.02804238       2.50151076 </v>
   <v>      -0.00003605      -0.00007583       2.46764400 </v>
   <v>      -0.00550914       0.00551909      -2.49575021 </v>
   <v>       0.00030903       0.04382914      -2.48829395 </v>
   <v>      -0.03778847      -0.03858368      -0.25438190 </v>
   <v>       0.00012541       0.00569821      -0.26287630 </v>
   <v>      -0.01408598       0.01410255      -0.03270275 </v>
   <v>       0.00023647       0.03344172      -0.00967627 </v>
   <v>      -0.00547321      -0.00659418       0.03167843 </v>
   <v>       0.00030879       0.01660075       0.01285299 </v>
   <v>      -0.00626721       0.00625531      -0.02122706 </v>
   <v>       0.00006777      -0.01697277      -0.00312920 </v>
   <v>      -0.01283205      -0.01396890       0.27875016 </v>
   <v>       0.00028120      -0.03318384       0.25630384 </v>
   <v>      -0.02886062       0.02845124       2.50298281 </v>
   <v>       0.00014079      -0.00625842       2.48792531 </v>
   <v>       0.04491838      -0.00062369      -2.48678733 </v>
   <v>       0.00079545      -0.04363545      -2.48735060 </v>
   <v>      -0.03674020       0.03810695      -0.25466915 </v>
   <v>       0.00063418      -0.00002866      -0.22793709 </v>
   <v>       0.03409162      -0.00038826      -0.00798524 </v>
   <v>       0.00042290      -0.03330400      -0.00953627 </v>
   <v>      -0.00471302       0.00645646       0.03148850 </v>
   <v>       0.00077723      -0.00023731      -0.03478019 </v>
   <v>      -0.01624298      -0.00051585      -0.00445358 </v>
   <v>       0.00088933       0.01714610      -0.00309213 </v>
   <v>      -0.01303326       0.01413157       0.27864465 </v>
   <v>       0.00030627      -0.00006465       0.31860542 </v>
   <v>      -0.00583091      -0.00078102       2.48760642 </v>
   <v>       0.00102469       0.00656572       2.48830752 </v>
   <v>       0.00501277      -0.00543314      -2.49585949 </v>
   <v>       0.04376446       0.00041810      -2.48805239 </v>
   <v>       0.00552017       0.00013457      -0.26277375 </v>
   <v>      -0.03832136      -0.03773645      -0.25427447 </v>
   <v>       0.01361587      -0.01389763      -0.03265712 </v>
   <v>       0.03345866       0.00028807      -0.00899886 </v>
   <v>       0.01646206       0.00018476       0.01279347 </v>
   <v>      -0.00663030      -0.00587990       0.03122239 </v>
   <v>       0.00579508      -0.00613345      -0.02120382 </v>
   <v>      -0.01736119       0.00017919      -0.00373347 </v>
   <v>      -0.03345391       0.00047717       0.25642250 </v>
   <v>      -0.01398865      -0.01330158       0.27876728 </v>
   <v>       0.02799957      -0.02876487       2.50305560 </v>
   <v>      -0.00645290       0.00008236       2.48862472 </v>
   <v>       0.00551523       0.00570714      -2.49636193 </v>
   <v>      -0.00547540      -0.00519686      -2.49647523 </v>
   <v>       0.03822917      -0.03788762      -0.25440633 </v>
   <v>      -0.03801361       0.03827702      -0.25433436 </v>
   <v>       0.01401144       0.01412509      -0.03243304 </v>
   <v>      -0.01384129      -0.01371776      -0.03288903 </v>
   <v>       0.00605759      -0.00585161       0.03166705 </v>
   <v>      -0.00569156       0.00629472       0.03163359 </v>
   <v>       0.00594066       0.00596461      -0.02132680 </v>
   <v>      -0.00610477      -0.00605517      -0.02099613 </v>
   <v>       0.01407416      -0.01291176       0.27894404 </v>
   <v>      -0.01310825       0.01393926       0.27880239 </v>
   <v>       0.02828815       0.02869929       2.50276157 </v>
   <v>      -0.02843140      -0.02822166       2.50330266 </v>
   <v>      -0.04352273       0.00000585      -2.48846431 </v>
   <v>      -0.00652229       0.00468365      -2.49507633 </v>
   <v>       0.03774260       0.03779629      -0.25403942 </v>
   <v>      -0.00579408      -0.00007355      -0.26296096 </v>
   <v>      -0.03309501       0.00023964      -0.00990641 </v>
   <v>      -0.01468816       0.01329621      -0.03214959 </v>
   <v>       0.00542732       0.00542433       0.03177467 </v>
   <v>      -0.01694787      -0.00017057       0.01288388 </v>
   <v>       0.01714762       0.00007708      -0.00262271 </v>
   <v>      -0.00599648       0.00591415      -0.02140697 </v>
   <v>       0.01329461       0.01324315       0.27842841 </v>
   <v>       0.03333196      -0.00007790       0.25571502 </v>
   <v>       0.00705204       0.00025271       2.48896838 </v>
   <v>      -0.02880724       0.02797045       2.50303713 </v>
   <v>       0.00424832      -0.00656368      -2.49417020 </v>
   <v>       0.04565347      -0.00098392      -2.48604163 </v>
   <v>       0.00421967      -0.00116536      -0.26261225 </v>
   <v>      -0.03811834      -0.03825137      -0.25441702 </v>
   <v>       0.01334892      -0.01399512      -0.03195426 </v>
   <v>       0.03427235       0.00083775      -0.00730210 </v>
   <v>       0.01679365       0.00008731       0.01278094 </v>
   <v>      -0.00686377      -0.00608695       0.03152121 </v>
   <v>       0.00623428      -0.00605162      -0.02186184 </v>
   <v>      -0.01681794       0.00026660      -0.00401645 </v>
   <v>      -0.03414439      -0.00028552       0.25582975 </v>
   <v>      -0.01316116      -0.01347161       0.27789378 </v>
   <v>       0.02789103      -0.02891723       2.50250857 </v>
   <v>      -0.00517819       0.00035203       2.48688796 </v>
   <v>       0.00147769       0.00452514      -2.49137839 </v>
   <v>      -0.00116087      -0.00434953      -2.49366483 </v>
   <v>       0.03595563      -0.03723155      -0.25249389 </v>
   <v>      -0.03483451       0.03924150      -0.25465322 </v>
   <v>       0.01184635       0.01386540      -0.03270939 </v>
   <v>      -0.01135597      -0.01430782      -0.02908899 </v>
   <v>       0.00596013      -0.00571880       0.03169571 </v>
   <v>      -0.00864765       0.00623582       0.02816154 </v>
   <v>       0.00647013       0.00604516      -0.02277019 </v>
   <v>      -0.00501873      -0.00611209      -0.02165258 </v>
   <v>       0.01197050      -0.01324062       0.27701359 </v>
   <v>      -0.01260846       0.01367323       0.27767946 </v>
   <v>       0.02786960       0.02697101       2.50099329 </v>
   <v>      -0.02619034      -0.02860932       2.50073449 </v>
   <v>      -0.04572888       0.00206972      -2.48558038 </v>
   <v>      -0.00565105       0.00580849      -2.49544810 </v>
   <v>       0.03797545       0.03843795      -0.25411408 </v>
   <v>      -0.00571559      -0.00071782      -0.26265192 </v>
   <v>      -0.03540879       0.00080603      -0.00905398 </v>
   <v>      -0.01442208       0.01439891      -0.03183287 </v>
   <v>       0.00591071       0.00602692       0.03165898 </v>
   <v>      -0.01851717      -0.00051396       0.01133780 </v>
   <v>       0.01730362       0.00024823      -0.00344197 </v>
   <v>      -0.00630254       0.00654071      -0.02182752 </v>
   <v>       0.01320254       0.01381239       0.27830337 </v>
   <v>       0.03491345      -0.00070346       0.25569945 </v>
   <v>       0.00591714       0.00247422       2.48762005 </v>
   <v>      -0.02820394       0.02857105       2.50375373 </v>
   <v>       0.00542017      -0.00550165      -2.49572704 </v>
   <v>       0.04359277       0.00020889      -2.48838746 </v>
   <v>       0.00597080       0.00006065      -0.26274887 </v>
   <v>      -0.03774922      -0.03771899      -0.25450524 </v>
   <v>       0.01426038      -0.01416795      -0.03282912 </v>
   <v>       0.03348360       0.00010449      -0.00959399 </v>
   <v>       0.01670853       0.00022682       0.01292136 </v>
   <v>      -0.00586849      -0.00561375       0.03227951 </v>
   <v>       0.00618593      -0.00593282      -0.02154914 </v>
   <v>      -0.01676759      -0.00019611      -0.00301799 </v>
   <v>      -0.03351485       0.00051322       0.25665558 </v>
   <v>      -0.01391937      -0.01238604       0.27752679 </v>
   <v>       0.02893071      -0.02899414       2.50364366 </v>
   <v>      -0.00618675      -0.00037473       2.48871421 </v>
   <v>       0.00562583       0.00540805      -2.49660153 </v>
   <v>      -0.00561470      -0.00579993      -2.49612169 </v>
   <v>       0.03811461      -0.03804642      -0.25440215 </v>
   <v>      -0.03792075       0.03777667      -0.25432135 </v>
   <v>       0.01414754       0.01380115      -0.03274562 </v>
   <v>      -0.01388467      -0.01419913      -0.03257025 </v>
   <v>       0.00598754      -0.00608128       0.03142078 </v>
   <v>      -0.00602753       0.00601127       0.03164962 </v>
   <v>       0.00629052       0.00595858      -0.02121964 </v>
   <v>      -0.00613136      -0.00630519      -0.02146339 </v>
   <v>       0.01368678      -0.01381498       0.27874323 </v>
   <v>      -0.01393091       0.01395510       0.27888161 </v>
   <v>       0.02872183       0.02823720       2.50271435 </v>
   <v>      -0.02845084      -0.02865446       2.50263357 </v>
   <v>      -0.04411712       0.00002128      -2.48803810 </v>
   <v>      -0.00587180       0.00543070      -2.49534147 </v>
   <v>       0.03785867       0.03800125      -0.25408338 </v>
   <v>      -0.00603809      -0.00014660      -0.26284247 </v>
   <v>      -0.03372761       0.00013539      -0.00965313 </v>
   <v>      -0.01428490       0.01403197      -0.03182844 </v>
   <v>       0.00548338       0.00598686       0.03148856 </v>
   <v>      -0.01716227      -0.00024038       0.01248061 </v>
   <v>       0.01681263       0.00023799      -0.00305227 </v>
   <v>      -0.00664035       0.00634628      -0.02203825 </v>
   <v>       0.01355502       0.01305570       0.27855955 </v>
   <v>       0.03317917      -0.00038071       0.25659102 </v>
   <v>       0.00606867       0.00020038       2.48838123 </v>
   <v>      -0.02959605       0.02874715       2.50211419 </v>
   <v>       0.00018270       0.04409857      -2.48763986 </v>
   <v>      -0.04344779       0.00042562      -2.48810522 </v>
   <v>       0.00007159       0.00040974      -0.22785015 </v>
   <v>       0.03811547      -0.03751826      -0.25435052 </v>
   <v>       0.00002516       0.03382181      -0.00820361 </v>
   <v>      -0.03336698       0.00025460      -0.00982372 </v>
   <v>       0.00038762       0.00077146      -0.03549899 </v>
   <v>       0.00648602      -0.00481495       0.03185463 </v>
   <v>       0.00004926      -0.01693638      -0.00454891 </v>
   <v>       0.01731275       0.00034677      -0.00256110 </v>
   <v>       0.00041528       0.00051151       0.31916179 </v>
   <v>       0.01380810      -0.01335080       0.27902317 </v>
   <v>      -0.00037584      -0.00575658       2.48741467 </v>
   <v>       0.00723284       0.00121942       2.48854322 </v>
   <v>       0.00028798      -0.04345581      -2.48838532 </v>
   <v>       0.00442881      -0.00620877      -2.49520000 </v>
   <v>      -0.00023232      -0.00588695      -0.26279672 </v>
   <v>       0.03783888       0.03794198      -0.25409669 </v>
   <v>       0.00033081      -0.03300168      -0.00995819 </v>
   <v>       0.01340150      -0.01475255      -0.03225386 </v>
   <v>      -0.00043249      -0.01712153       0.01296704 </v>
   <v>       0.00543413       0.00567630       0.03167847 </v>
   <v>       0.00009886       0.01725820      -0.00245864 </v>
   <v>       0.00592642      -0.00593798      -0.02160796 </v>
   <v>      -0.00014235       0.03336857       0.25580807 </v>
   <v>       0.01314341       0.01334276       0.27826754 </v>
   <v>       0.00047580       0.00702071       2.48887082 </v>
   <v>       0.02799959      -0.02871009       2.50313063 </v>
   <v>      -0.00082092      -0.00113266      -2.50740994 </v>
   <v>       0.00669086       0.00618095      -2.49571028 </v>
   <v>      -0.00018701       0.00530983      -0.26328410 </v>
   <v>       0.00537165      -0.00006554      -0.26363302 </v>
   <v>      -0.00048044      -0.00046315      -0.07317611 </v>
   <v>       0.01402282       0.01457402      -0.03200592 </v>
   <v>      -0.00057413       0.01609875       0.01253958 </v>
   <v>       0.01598068      -0.00070844       0.01278700 </v>
   <v>      -0.00025263      -0.00015771       0.04486738 </v>
   <v>       0.00533993       0.00581274      -0.02312245 </v>
   <v>       0.00031619      -0.03284781       0.25589622 </v>
   <v>      -0.03301403       0.00043315       0.25591125 </v>
   <v>      -0.00038637      -0.00039268       2.46816142 </v>
   <v>       0.02815139       0.02834350       2.50274839 </v>
   <v>       0.00101975       0.04507571      -2.48826385 </v>
   <v>      -0.04376589       0.00049934      -2.49025557 </v>
   <v>       0.00026221       0.00035005      -0.22966980 </v>
   <v>       0.03854793      -0.03772125      -0.25453873 </v>
   <v>       0.00147416       0.03360906      -0.00717647 </v>
   <v>      -0.03555422      -0.00033294      -0.01451545 </v>
   <v>       0.00268740      -0.00004231      -0.03225978 </v>
   <v>       0.00928992      -0.00402502       0.03333298 </v>
   <v>       0.00043781      -0.01734030      -0.00495005 </v>
   <v>       0.01760035       0.00007528       0.00347422 </v>
   <v>       0.00037770      -0.00040076       0.31840527 </v>
   <v>       0.01492705      -0.01264489       0.27709702 </v>
   <v>       0.00050751      -0.00652097       2.48802237 </v>
   <v>       0.00877178       0.00134688       2.49311981 </v>
   <v>       0.00284914      -0.04269816      -2.48731124 </v>
   <v>       0.00433701      -0.00547661      -2.49969933 </v>
   <v>      -0.00249708      -0.00595601      -0.26413708 </v>
   <v>       0.03840994       0.03745232      -0.25029036 </v>
   <v>       0.00005406      -0.03382834      -0.00916001 </v>
   <v>       0.01154076      -0.01340997      -0.03813526 </v>
   <v>       0.00425522      -0.01632213       0.01939924 </v>
   <v>       0.00495947       0.00661833       0.03015187 </v>
   <v>      -0.00327457       0.01638059      -0.00739267 </v>
   <v>       0.01200639      -0.00616696      -0.00891134 </v>
   <v>       0.00295081       0.03394079       0.25619496 </v>
   <v>       0.00392682       0.01287951       0.27000769 </v>
   <v>       0.00285801       0.00600852       2.48867128 </v>
   <v>       0.03344708      -0.03080050       2.51146276 </v>
   <v>       0.00117823      -0.00135580      -2.50950646 </v>
   <v>       0.00589798       0.00476274      -2.49544701 </v>
   <v>      -0.00000442       0.00589164      -0.26379827 </v>
   <v>       0.00551050      -0.00003300      -0.26164262 </v>
   <v>       0.00074059       0.00018676      -0.07170039 </v>
   <v>       0.01383126       0.01397575      -0.03332065 </v>
   <v>       0.00042672       0.01705714       0.01246883 </v>
   <v>       0.01810565      -0.00155436       0.01335779 </v>
   <v>      -0.00198745       0.00134525       0.04245532 </v>
   <v>       0.00541133       0.00665297      -0.02196957 </v>
   <v>      -0.00092660      -0.03270937       0.25601099 </v>
   <v>      -0.03496832       0.00206992       0.25126108 </v>
   <v>       0.00158705       0.00042730       2.46691023 </v>
   <v>       0.03013391       0.02652051       2.50153052 </v>
   <v>      -0.00065808       0.04398271      -2.48685615 </v>
   <v>      -0.04363210       0.00070457      -2.48737945 </v>
   <v>      -0.00003018       0.00002596      -0.22794054 </v>
   <v>       0.03795125      -0.03833332      -0.25483247 </v>
   <v>       0.00028454       0.03355928      -0.00909888 </v>
   <v>      -0.03374967       0.00003803      -0.00872504 </v>
   <v>      -0.00003310       0.00002447      -0.03445293 </v>
   <v>       0.00602212      -0.00641346       0.03089811 </v>
   <v>       0.00050671      -0.01711732      -0.00348124 </v>
   <v>       0.01654653      -0.00016653      -0.00368711 </v>
   <v>      -0.00105310       0.00050150       0.31782518 </v>
   <v>       0.01288335      -0.01283792       0.27823612 </v>
   <v>       0.00041769      -0.00683236       2.48930558 </v>
   <v>       0.00645592      -0.00016354       2.48932804 </v>
   <v>       0.00006015      -0.04379480      -2.48805738 </v>
   <v>       0.00587183      -0.00542931      -2.49527050 </v>
   <v>      -0.00007000      -0.00585669      -0.26267267 </v>
   <v>       0.03770534       0.03790034      -0.25417765 </v>
   <v>       0.00009056      -0.03370760      -0.00963290 </v>
   <v>       0.01431639      -0.01397281      -0.03268064 </v>
   <v>      -0.00008945      -0.01711876       0.01217442 </v>
   <v>       0.00554468       0.00593847       0.03213288 </v>
   <v>      -0.00003992       0.01692027      -0.00307657 </v>
   <v>       0.00617843      -0.00604487      -0.02153302 </v>
   <v>      -0.00046956       0.03309858       0.25638162 </v>
   <v>       0.01316402       0.01374297       0.27811145 </v>
   <v>       0.00054198       0.00601138       2.48911482 </v>
   <v>       0.02899031      -0.02934869       2.50365001 </v>
   <v>       0.00013132      -0.00017416      -2.50784887 </v>
   <v>       0.00614949       0.00569982      -2.49581544 </v>
   <v>      -0.00002627       0.00571090      -0.26291879 </v>
   <v>       0.00580273      -0.00018394      -0.26282043 </v>
   <v>       0.00003505      -0.00019556      -0.07253894 </v>
   <v>       0.01403529       0.01393241      -0.03161844 </v>
   <v>      -0.00012749       0.01684184       0.01303991 </v>
   <v>       0.01727898      -0.00073824       0.01285130 </v>
   <v>       0.00018491      -0.00004294       0.04351040 </v>
   <v>       0.00612360       0.00609618      -0.02300980 </v>
   <v>       0.00001665      -0.03354762       0.25660402 </v>
   <v>      -0.03332527      -0.00037298       0.25656138 </v>
   <v>       0.00001433      -0.00065131       2.46650425 </v>
   <v>       0.02928854       0.02816810       2.50107843 </v>
   <v>      -0.00509649      -0.00622687      -2.49680193 </v>
   <v>       0.00086311      -0.00089650      -2.50956832 </v>
   <v>      -0.00540267      -0.00035289      -0.26255597 </v>
   <v>      -0.00029854      -0.00686099      -0.26288029 </v>
   <v>      -0.01413950      -0.01417954      -0.03287143 </v>
   <v>       0.00011863       0.00088657      -0.07376010 </v>
   <v>      -0.01692589      -0.00070878       0.01274989 </v>
   <v>       0.00036856      -0.01563321       0.01247185 </v>
   <v>      -0.00635908      -0.00596637      -0.02152288 </v>
   <v>      -0.00059372       0.00032432       0.04485203 </v>
   <v>       0.03307520      -0.00026530       0.25624575 </v>
   <v>       0.00027659       0.03378980       0.25609334 </v>
   <v>      -0.02777123      -0.02763894       2.50272638 </v>
   <v>      -0.00017914      -0.00006875       2.46851892 </v>
   <v>      -0.00620828       0.00401171      -2.49400396 </v>
   <v>      -0.00155030       0.04465451      -2.48501631 </v>
   <v>      -0.03845387      -0.03828445      -0.25380092 </v>
   <v>      -0.00077836       0.00456980      -0.26385325 </v>
   <v>      -0.01413800       0.01377652      -0.03194362 </v>
   <v>       0.00042729       0.03315471      -0.00873783 </v>
   <v>      -0.00574455      -0.00651916       0.03150226 </v>
   <v>      -0.00009361       0.01730657       0.01256635 </v>
   <v>      -0.00613956       0.00624471      -0.02200531 </v>
   <v>       0.00001174      -0.01704031      -0.00396322 </v>
   <v>      -0.01353987      -0.01327748       0.27793240 </v>
   <v>       0.00011851      -0.03342129       0.25660460 </v>
   <v>      -0.02880103       0.02806496       2.50256415 </v>
   <v>      -0.00076405      -0.00577605       2.48631298 </v>
   <v>       0.04436673       0.00167184      -2.48835645 </v>
   <v>       0.00105151      -0.04360616      -2.49002181 </v>
   <v>      -0.03788320       0.03871865      -0.25461873 </v>
   <v>       0.00079791       0.00061406      -0.22973952 </v>
   <v>       0.03380406       0.00147797      -0.00697922 </v>
   <v>      -0.00045437      -0.03564477      -0.01406582 </v>
   <v>      -0.00425334       0.01008987       0.03411362 </v>
   <v>      -0.00016099       0.00017089      -0.03398924 </v>
   <v>      -0.01737635       0.00031353      -0.00491414 </v>
   <v>      -0.00042405       0.01587322       0.00026143 </v>
   <v>      -0.01263602       0.01544974       0.27764559 </v>
   <v>      -0.00031445       0.00022128       0.31841625 </v>
   <v>      -0.00654492       0.00065382       2.48779192 </v>
   <v>       0.00027759       0.00836625       2.49205138 </v>
   <v>      -0.00526706      -0.00510483      -2.49782782 </v>
   <v>      -0.00203663      -0.00344935      -2.50638089 </v>
   <v>      -0.00583672      -0.00059355      -0.26277366 </v>
   <v>      -0.00075383      -0.00564663      -0.26133393 </v>
   <v>      -0.01468437      -0.01461860      -0.03551693 </v>
   <v>       0.00040190      -0.00008157      -0.06599271 </v>
   <v>      -0.02198810      -0.00135629       0.00543638 </v>
   <v>      -0.00025846      -0.02240491       0.00487186 </v>
   <v>      -0.00555763      -0.00507924      -0.01175754 </v>
   <v>      -0.00290094      -0.00387622       0.02435618 </v>
   <v>       0.03157280       0.00265693       0.26007369 </v>
   <v>       0.00192512       0.02800154       0.25754961 </v>
   <v>      -0.02726830      -0.02673178       2.50843702 </v>
   <v>      -0.05334288      -0.06124730       2.41832224 </v>
   <v>      -0.00942957       0.00539198      -2.49675450 </v>
   <v>      -0.00306614       0.04662594      -2.48390235 </v>
   <v>      -0.03869600      -0.03783061      -0.25488896 </v>
   <v>      -0.00254653       0.00505890      -0.26232368 </v>
   <v>      -0.01558659       0.01410163      -0.02882935 </v>
   <v>       0.00049980       0.03334032      -0.00389347 </v>
   <v>      -0.01250845      -0.00667031       0.02412244 </v>
   <v>      -0.00215664       0.01682191       0.02025070 </v>
   <v>      -0.00584980       0.00535485      -0.02538184 </v>
   <v>      -0.00354423      -0.01416067      -0.02411467 </v>
   <v>      -0.00274535      -0.01837120       0.29719792 </v>
   <v>      -0.00424549      -0.03993528       0.23951055 </v>
   <v>      -0.05590384       0.02549509       2.48651337 </v>
   <v>      -0.05642526       0.04452372       2.49140529 </v>
   <v>       0.04351393       0.00036981      -2.48940198 </v>
   <v>       0.00011713      -0.04276780      -2.49127721 </v>
   <v>      -0.03855478       0.03810115      -0.25365806 </v>
   <v>      -0.00015179       0.00060340      -0.22837111 </v>
   <v>       0.03294484       0.00119199      -0.00817579 </v>
   <v>      -0.00103665      -0.03157251      -0.01303418 </v>
   <v>      -0.00630755       0.00586414       0.03078324 </v>
   <v>       0.00238823       0.00440527      -0.03904359 </v>
   <v>      -0.01760245       0.00059660       0.00140268 </v>
   <v>      -0.00062341       0.01422686       0.00505655 </v>
   <v>      -0.01682996       0.01663539       0.27347301 </v>
   <v>       0.00674347      -0.00733951       0.33461398 </v>
   <v>      -0.00081571      -0.00557027       2.49538447 </v>
   <v>       0.00229479       0.00010991       2.49497556 </v>
   <v>      -0.00427293      -0.00611858      -2.49662740 </v>
   <v>      -0.00176074      -0.00318908      -2.50599459 </v>
   <v>      -0.00554709       0.00023240      -0.26307869 </v>
   <v>       0.00080416      -0.00438344      -0.26331001 </v>
   <v>      -0.01426660      -0.01431090      -0.03156315 </v>
   <v>      -0.00005883      -0.00097930      -0.07030345 </v>
   <v>      -0.01651635       0.00117804       0.01214333 </v>
   <v>       0.00005905      -0.01943024       0.01758253 </v>
   <v>      -0.00746893      -0.00417283      -0.02279613 </v>
   <v>      -0.00050757      -0.00104484       0.04421632 </v>
   <v>       0.03362441      -0.00059971       0.25577797 </v>
   <v>      -0.00049203       0.03049725       0.25590581 </v>
   <v>      -0.02854035      -0.02960199       2.50151750 </v>
   <v>      -0.00079625      -0.00172112       2.46557975 </v>
   <v>      -0.00718636       0.00612410      -2.49383212 </v>
   <v>       0.00010695       0.04652059      -2.48700064 </v>
   <v>      -0.03743811      -0.03788405      -0.25476202 </v>
   <v>       0.00046968       0.00624129      -0.26145575 </v>
   <v>      -0.01437863       0.01540312      -0.03213276 </v>
   <v>      -0.00054840       0.03221622      -0.00751181 </v>
   <v>      -0.00558569      -0.00599278       0.03108899 </v>
   <v>       0.00057073       0.01595229       0.01275951 </v>
   <v>      -0.00639302       0.00642375      -0.02202028 </v>
   <v>      -0.00048582      -0.01747072      -0.00387406 </v>
   <v>      -0.01322209      -0.01372444       0.27873200 </v>
   <v>       0.00065725      -0.03310784       0.25569857 </v>
   <v>      -0.03016576       0.02908998       2.50229573 </v>
   <v>      -0.00036098      -0.00492681       2.48817388 </v>
   <v>       0.04458191       0.00069210      -2.48938765 </v>
   <v>       0.00025975      -0.04406978      -2.49039337 </v>
   <v>      -0.03734487       0.03808532      -0.25490912 </v>
   <v>       0.00053121      -0.00036047      -0.22729118 </v>
   <v>       0.03297891      -0.00008467      -0.01064569 </v>
   <v>      -0.00064057      -0.03333437      -0.00885389 </v>
   <v>      -0.00508289       0.00488907       0.03183689 </v>
   <v>       0.00046966      -0.00050381      -0.03510339 </v>
   <v>      -0.01743405      -0.00030877      -0.00281046 </v>
   <v>      -0.00035844       0.01771124      -0.00338488 </v>
   <v>      -0.01334957       0.01309084       0.27903959 </v>
   <v>       0.00026645       0.00081738       0.31806089 </v>
   <v>      -0.00649648      -0.00013619       2.48917087 </v>
   <v>       0.00026421       0.00771473       2.48901079 </v>
   <v>       0.00570584      -0.00542604      -2.49940409 </v>
   <v>       0.04326736      -0.00179643      -2.48866318 </v>
   <v>       0.00594038       0.00111474      -0.26398445 </v>
   <v>      -0.03813499      -0.03983290      -0.25390303 </v>
   <v>       0.01449552      -0.01375509      -0.03344743 </v>
   <v>       0.03412725       0.00090094      -0.00915045 </v>
   <v>       0.01693864       0.00030268       0.01278113 </v>
   <v>      -0.00650122      -0.00604525       0.03067338 </v>
   <v>       0.00576035      -0.00633855      -0.02007660 </v>
   <v>      -0.01649118       0.00000322      -0.00383300 </v>
   <v>      -0.03283196      -0.00037266       0.25681530 </v>
   <v>      -0.01381808      -0.01400949       0.27797672 </v>
   <v>       0.02801894      -0.02850513       2.50436777 </v>
   <v>      -0.00666239      -0.00142289       2.48864462 </v>
   <v>       0.00510668       0.00136782      -2.49150908 </v>
   <v>      -0.00332673      -0.00322717      -2.49353847 </v>
   <v>       0.03878108      -0.03546412      -0.25328243 </v>
   <v>      -0.03774650       0.03643355      -0.25398476 </v>
   <v>       0.01396002       0.01339390      -0.03054572 </v>
   <v>      -0.01373318      -0.01368308      -0.03054802 </v>
   <v>       0.00608746      -0.00714870       0.02958428 </v>
   <v>      -0.00585012       0.00591754       0.03128446 </v>
   <v>       0.00609310       0.00655718      -0.02344949 </v>
   <v>      -0.00598628      -0.00559711      -0.02207016 </v>
   <v>       0.01366672      -0.01386448       0.27746831 </v>
   <v>      -0.01356211       0.01325501       0.27759070 </v>
   <v>       0.02744870       0.02736453       2.50089872 </v>
   <v>      -0.02697222      -0.02772240       2.50054682 </v>
   <v>      -0.04341326       0.00431910      -2.48684614 </v>
   <v>      -0.00612476       0.00547727      -2.49880052 </v>
   <v>       0.03764362       0.03803447      -0.25178061 </v>
   <v>      -0.00606062      -0.00145759      -0.26370886 </v>
   <v>      -0.03388642       0.00168563      -0.00730513 </v>
   <v>      -0.01370735       0.01268654      -0.03575190 </v>
   <v>       0.00627076       0.00842865       0.03373359 </v>
   <v>      -0.01671249       0.00156158       0.01605260 </v>
   <v>       0.01686465      -0.00111476      -0.00613592 </v>
   <v>      -0.00537624       0.00781467      -0.01528362 </v>
   <v>       0.01376345       0.00807551       0.27335421 </v>
   <v>       0.03339459       0.00249570       0.25631200 </v>
   <v>       0.00586596       0.00338269       2.48768492 </v>
   <v>      -0.02952896       0.03124744       2.50684437 </v>
   <v>       0.00555508      -0.00860554      -2.49800640 </v>
   <v>       0.04560385      -0.00123963      -2.48670471 </v>
   <v>       0.00567679      -0.00190236      -0.26325835 </v>
   <v>      -0.03772497      -0.03830856      -0.25345344 </v>
   <v>       0.01425531      -0.01594770      -0.03214560 </v>
   <v>       0.03401160       0.00059026      -0.00380540 </v>
   <v>       0.01630159      -0.00447401       0.01515419 </v>
   <v>      -0.00629996      -0.00974697       0.02631775 </v>
   <v>       0.00544079      -0.00108430      -0.01763127 </v>
   <v>      -0.01373665      -0.00166030      -0.01795805 </v>
   <v>      -0.03939841       0.00413588       0.26032514 </v>
   <v>      -0.01530517      -0.00914367       0.28681441 </v>
   <v>       0.02544254      -0.04356757       2.49222494 </v>
   <v>       0.03534014      -0.03688540       2.47224260 </v>
   <v>       0.00682316       0.00369997      -2.48825580 </v>
   <v>      -0.00140737      -0.00369860      -2.49386397 </v>
   <v>       0.03976925      -0.03599978      -0.25370364 </v>
   <v>      -0.03715705       0.03888420      -0.25460159 </v>
   <v>       0.01347122       0.01323241      -0.02940049 </v>
   <v>      -0.01224957      -0.01357356      -0.02489256 </v>
   <v>       0.00779154      -0.00490637       0.04028797 </v>
   <v>      -0.00537387       0.00819267       0.03537354 </v>
   <v>       0.00694236       0.00431876      -0.05091826 </v>
   <v>       0.00074952      -0.00284433      -0.04174150 </v>
   <v>       0.01906154      -0.01608646       0.24479072 </v>
   <v>      -0.03109773       0.01756407       0.28419618 </v>
   <v>      -0.07576428      -0.12502857       2.32362820 </v>
   <v>       0.14839276       0.10310588       2.24870555 </v>
   <v>      -0.04361838       0.00416978      -2.48824841 </v>
   <v>      -0.00621979       0.00553419      -2.49759690 </v>
   <v>       0.03855182       0.03791098      -0.25150913 </v>
   <v>      -0.00585415       0.00037626      -0.26243158 </v>
   <v>      -0.03338403       0.00142505      -0.00723896 </v>
   <v>      -0.01323618       0.01544447      -0.03664470 </v>
   <v>       0.00556954       0.00631421       0.03124943 </v>
   <v>      -0.01653689       0.00529410       0.00634360 </v>
   <v>       0.01786007      -0.00224471      -0.00574402 </v>
   <v>      -0.00586139       0.00740982      -0.01600703 </v>
   <v>       0.01236390       0.02143009       0.27209668 </v>
   <v>       0.02722359       0.00663722       0.25687480 </v>
   <v>       0.01229772       0.05364145       2.45985670 </v>
   <v>      -0.02921160       0.02127500       2.51182125 </v>
   <v>       0.00433099      -0.00888605      -2.49581674 </v>
   <v>       0.04523882      -0.00049073      -2.48574206 </v>
   <v>       0.00461861      -0.00067017      -0.26252844 </v>
   <v>      -0.03859128      -0.03841282      -0.25561728 </v>
   <v>       0.01435625      -0.01453691      -0.03231066 </v>
   <v>       0.03323480       0.00087948      -0.00819676 </v>
   <v>       0.01659900       0.00261723       0.01100550 </v>
   <v>      -0.00659634      -0.00656285       0.03318830 </v>
   <v>       0.00654906      -0.00554545      -0.02359570 </v>
   <v>      -0.01631608      -0.00023310      -0.00320392 </v>
   <v>      -0.03339447       0.00109037       0.25430744 </v>
   <v>      -0.01334949      -0.01576322       0.27909548 </v>
   <v>       0.02989860      -0.03023738       2.50462866 </v>
   <v>      -0.00524838      -0.00211881       2.48698510 </v>
   <v>       0.00689811       0.00851620      -2.49088659 </v>
   <v>      -0.00551549      -0.00447230      -2.49610005 </v>
   <v>       0.03775494      -0.03654340      -0.25578599 </v>
   <v>      -0.03782577       0.03872867      -0.25455166 </v>
   <v>       0.01437381       0.01437843      -0.03223549 </v>
   <v>      -0.01360049      -0.01512452      -0.03210339 </v>
   <v>       0.00580615      -0.00459178       0.03058218 </v>
   <v>      -0.00646439       0.00450128       0.03230744 </v>
   <v>       0.00665667       0.00676208      -0.02372241 </v>
   <v>      -0.00535879      -0.00665777      -0.02089812 </v>
   <v>       0.01292862      -0.01258790       0.27880303 </v>
   <v>      -0.01374361       0.01259682       0.27895172 </v>
   <v>       0.02967125       0.02935108       2.50078016 </v>
   <v>      -0.02749560      -0.02824531       2.50282917 </v>
   <v>      -0.04380400       0.00124324      -2.49170588 </v>
   <v>      -0.00561859       0.00521889      -2.49806448 </v>
   <v>       0.03804578       0.04024679      -0.25602597 </v>
   <v>      -0.00586713      -0.00083664      -0.26267753 </v>
   <v>      -0.03354463       0.00060966      -0.01086291 </v>
   <v>      -0.01348823       0.01322409      -0.03188470 </v>
   <v>       0.00565153       0.00658733       0.03166466 </v>
   <v>      -0.01692652      -0.00201048       0.01279497 </v>
   <v>       0.01777639       0.00062330      -0.00249349 </v>
   <v>      -0.00562695       0.00553959      -0.02175250 </v>
   <v>       0.01335615       0.01382355       0.27901194 </v>
   <v>       0.03272874      -0.00093008       0.25627280 </v>
   <v>       0.00714350       0.00062871       2.48981646 </v>
   <v>      -0.02844744       0.02765317       2.50332137 </v>
   <v>      -0.00068387       0.04341457      -2.48923809 </v>
   <v>      -0.04451347       0.00049078      -2.48752933 </v>
   <v>      -0.00084785       0.00008304      -0.22822851 </v>
   <v>       0.03808287      -0.03771456      -0.25437500 </v>
   <v>       0.00005575       0.03398477      -0.00981640 </v>
   <v>      -0.03387957       0.00034186      -0.00918200 </v>
   <v>      -0.00036343       0.00076874      -0.03488258 </v>
   <v>       0.00552261      -0.00498302       0.03176852 </v>
   <v>       0.00055966      -0.01670420      -0.00324963 </v>
   <v>       0.01667336       0.00019427      -0.00371394 </v>
   <v>      -0.00018044       0.00035989       0.31901739 </v>
   <v>       0.01372682      -0.01283450       0.27868189 </v>
   <v>      -0.00082797      -0.00672920       2.48801032 </v>
   <v>       0.00620348       0.00140664       2.48838041 </v>
   <v>       0.00113543      -0.04491045      -2.48623366 </v>
   <v>       0.00550337      -0.00583443      -2.49561588 </v>
   <v>      -0.00040055      -0.00605132      -0.26257991 </v>
   <v>       0.03835816       0.03829257      -0.25427182 </v>
   <v>       0.00042111      -0.03453993      -0.00926511 </v>
   <v>       0.01414034      -0.01413425      -0.03230133 </v>
   <v>      -0.00050584      -0.01793553       0.01238464 </v>
   <v>       0.00621203       0.00612983       0.03121291 </v>
   <v>       0.00017213       0.01711183      -0.00333535 </v>
   <v>       0.00652494      -0.00614645      -0.02167132 </v>
   <v>      -0.00059977       0.03414174       0.25606700 </v>
   <v>       0.01409913       0.01358266       0.27801413 </v>
   <v>       0.00120800       0.00677303       2.48891956 </v>
   <v>       0.02815868      -0.02810277       2.50393482 </v>
   <v>      -0.00068693       0.00078767      -2.50950189 </v>
   <v>       0.00474879       0.00538666      -2.49487730 </v>
   <v>      -0.00010400       0.00538332      -0.26272998 </v>
   <v>       0.00592201       0.00002791      -0.26354850 </v>
   <v>       0.00046121       0.00050011      -0.07196344 </v>
   <v>       0.01398909       0.01402904      -0.03270417 </v>
   <v>      -0.00144419       0.01836387       0.01311417 </v>
   <v>       0.01733392       0.00004451       0.01302186 </v>
   <v>       0.00095572      -0.00108957       0.04304998 </v>
   <v>       0.00623964       0.00579916      -0.02232031 </v>
   <v>       0.00043304      -0.03374990       0.25460649 </v>
   <v>      -0.03249778      -0.00049279       0.25541803 </v>
   <v>       0.00030633       0.00053771       2.46759667 </v>
   <v>       0.02768512       0.02925753       2.50241089 </v>
   <v>      -0.00001378       0.04409245      -2.48898300 </v>
   <v>      -0.04331053       0.00061599      -2.49045937 </v>
   <v>       0.00117458      -0.00037019      -0.22713156 </v>
   <v>       0.03752087      -0.03839956      -0.25406792 </v>
   <v>       0.00087536       0.03358838      -0.00988114 </v>
   <v>      -0.03193362      -0.00098390      -0.01280366 </v>
   <v>       0.00539013       0.00108690      -0.04045070 </v>
   <v>       0.00432466      -0.00585807       0.03118320 </v>
   <v>       0.00020455      -0.01705049       0.00123534 </v>
   <v>       0.01795094      -0.00137110      -0.00050528 </v>
   <v>       0.00242487       0.00116152       0.32201673 </v>
   <v>       0.01509358      -0.01513981       0.27663841 </v>
   <v>      -0.00402875      -0.00243404       2.49155962 </v>
   <v>       0.00308696       0.00160016       2.49102773 </v>
   <v>       0.00211278      -0.04371513      -2.49039314 </v>
   <v>       0.00599174      -0.00645674      -2.49737927 </v>
   <v>       0.00146030      -0.00533515      -0.26107171 </v>
   <v>       0.03712774       0.03837734      -0.25154579 </v>
   <v>       0.00073106      -0.03333928      -0.00977626 </v>
   <v>       0.01629677      -0.01321024      -0.03848913 </v>
   <v>       0.00961396      -0.01674783       0.00277943 </v>
   <v>      -0.00131062       0.00576934       0.03825483 </v>
   <v>      -0.00914883       0.01779339       0.00734564 </v>
   <v>       0.00968688      -0.00536774      -0.01967392 </v>
   <v>       0.01669485       0.03149235       0.24815615 </v>
   <v>       0.01380848       0.01192316       0.27477449 </v>
   <v>       0.01687274       0.01280838       2.47962995 </v>
   <v>       0.02415287      -0.02860072       2.51035046 </v>
   <v>      -0.00014149      -0.00022820      -2.50981954 </v>
   <v>       0.00466821       0.00459627      -2.49595228 </v>
   <v>       0.00018776       0.00480761      -0.26322678 </v>
   <v>       0.00400775       0.00015643      -0.26301806 </v>
   <v>       0.00024109       0.00001798      -0.07673719 </v>
   <v>       0.01351932       0.01400799      -0.03210765 </v>
   <v>      -0.00058143       0.01286639       0.01549136 </v>
   <v>       0.01051656      -0.00074557       0.01735637 </v>
   <v>      -0.00286714      -0.00207266       0.05868679 </v>
   <v>       0.00741817       0.00766059      -0.02430305 </v>
   <v>       0.00271896      -0.03286788       0.25225078 </v>
   <v>      -0.03488034       0.00233873       0.25367676 </v>
   <v>      -0.01164250      -0.00941114       2.48276913 </v>
   <v>       0.02824412       0.02827922       2.50051913 </v>
   <v>      -0.00077741       0.04268848      -2.48840089 </v>
   <v>      -0.04315531       0.00143825      -2.48716884 </v>
   <v>       0.00085900       0.00013168      -0.22774618 </v>
   <v>       0.03848378      -0.03752129      -0.25488066 </v>
   <v>      -0.00000847       0.03223851      -0.00672410 </v>
   <v>      -0.03282508       0.00095104      -0.00940052 </v>
   <v>       0.00039485       0.00066155      -0.03522313 </v>
   <v>       0.00663738      -0.00495082       0.03089231 </v>
   <v>       0.00104146      -0.01627108      -0.00535720 </v>
   <v>       0.01697691      -0.00047876      -0.00314785 </v>
   <v>       0.00047016       0.00007196       0.31783981 </v>
   <v>       0.01357823      -0.01345446       0.27817653 </v>
   <v>      -0.00090512      -0.00779975       2.48681138 </v>
   <v>       0.00689066       0.00049348       2.48857781 </v>
   <v>       0.00076795      -0.04287776      -2.48661237 </v>
   <v>       0.00481136      -0.00572460      -2.49600081 </v>
   <v>       0.00000123      -0.00539108      -0.26257589 </v>
   <v>       0.03809217       0.03830998      -0.25430971 </v>
   <v>      -0.00004092      -0.03301174      -0.00880195 </v>
   <v>       0.01354487      -0.01420433      -0.03291962 </v>
   <v>       0.00030562      -0.01571548       0.01213068 </v>
   <v>       0.00651913       0.00614118       0.03157396 </v>
   <v>      -0.00019266       0.01753149      -0.00399397 </v>
   <v>       0.00562044      -0.00645249      -0.02074276 </v>
   <v>       0.00029603       0.03309070       0.25646990 </v>
   <v>       0.01393036       0.01395599       0.27813747 </v>
   <v>       0.00042222       0.00708271       2.48802597 </v>
   <v>       0.02734127      -0.02946343       2.50327517 </v>
   <v>      -0.00071817       0.00079724      -2.50939958 </v>
   <v>       0.00471174       0.00527067      -2.49581146 </v>
   <v>      -0.00053695       0.00668342      -0.26350818 </v>
   <v>       0.00569786      -0.00031405      -0.26294821 </v>
   <v>       0.00005439       0.00053828      -0.07409036 </v>
   <v>       0.01375387       0.01395575      -0.03100007 </v>
   <v>      -0.00081385       0.01717383       0.01350555 </v>
   <v>       0.01634295      -0.00078667       0.01272386 </v>
   <v>      -0.00031563      -0.00036342       0.04507093 </v>
   <v>       0.00608477       0.00650761      -0.02335274 </v>
   <v>      -0.00030615      -0.03314747       0.25710025 </v>
   <v>      -0.03322515      -0.00001612       0.25671305 </v>
   <v>      -0.00064118      -0.00118914       2.46844334 </v>
   <v>       0.02769415       0.02765026       2.50096045 </v>
   <v>      -0.00524618      -0.00525365      -2.49519137 </v>
   <v>       0.00029012       0.00023889      -2.50856831 </v>
   <v>      -0.00551378       0.00024644      -0.26282504 </v>
   <v>       0.00038500      -0.00550594      -0.26272281 </v>
   <v>      -0.01374015      -0.01366764      -0.03164751 </v>
   <v>       0.00021746       0.00014389      -0.07358198 </v>
   <v>      -0.01650112       0.00040369       0.01226262 </v>
   <v>       0.00052261      -0.01664875       0.01241723 </v>
   <v>      -0.00599438      -0.00616892      -0.02270691 </v>
   <v>       0.00025879       0.00004174       0.04469093 </v>
   <v>       0.03338186       0.00050352       0.25667475 </v>
   <v>       0.00027241       0.03382981       0.25639196 </v>
   <v>      -0.02707517      -0.02791336       2.50152675 </v>
   <v>       0.00004512      -0.00027340       2.46792530 </v>
   <v>      -0.00566470       0.00572649      -2.49590803 </v>
   <v>       0.00005937       0.04389288      -2.48860378 </v>
   <v>      -0.03782486      -0.03768807      -0.25429544 </v>
   <v>       0.00003842       0.00602722      -0.26293116 </v>
   <v>      -0.01423709       0.01443762      -0.03271459 </v>
   <v>      -0.00004436       0.03369418      -0.00954486 </v>
   <v>      -0.00576310      -0.00585175       0.03190331 </v>
   <v>       0.00016207       0.01687846       0.01304763 </v>
   <v>      -0.00619981       0.00645369      -0.02146638 </v>
   <v>      -0.00029564      -0.01657622      -0.00319235 </v>
   <v>      -0.01275966      -0.01400722       0.27827377 </v>
   <v>       0.00031498      -0.03327455       0.25637088 </v>
   <v>      -0.02875069       0.02880847       2.50315202 </v>
   <v>      -0.00038436      -0.00609574       2.48877882 </v>
   <v>       0.04423048      -0.00051269      -2.48727054 </v>
   <v>       0.00056785      -0.04394374      -2.48741814 </v>
   <v>      -0.03820575       0.03785830      -0.25472221 </v>
   <v>      -0.00020158       0.00013125      -0.22796241 </v>
   <v>       0.03355254       0.00010561      -0.00931816 </v>
   <v>       0.00009221      -0.03360092      -0.00900010 </v>
   <v>      -0.00614624       0.00596202       0.03136436 </v>
   <v>      -0.00000915      -0.00004628      -0.03454235 </v>
   <v>      -0.01704636       0.00032134      -0.00316213 </v>
   <v>      -0.00008745       0.01653367      -0.00355409 </v>
   <v>      -0.01319916       0.01273939       0.27791393 </v>
   <v>       0.00049868      -0.00085348       0.31827248 </v>
   <v>      -0.00675229       0.00034370       2.48907973 </v>
   <v>      -0.00021672       0.00664450       2.48932566 </v>
   <v>      -0.00562506      -0.00414424      -2.49609704 </v>
   <v>      -0.00124066      -0.00302293      -2.50617453 </v>
   <v>      -0.00397745       0.00123156      -0.26449478 </v>
   <v>      -0.00010967      -0.00600326      -0.26266415 </v>
   <v>      -0.01460719      -0.01416276      -0.03096051 </v>
   <v>       0.00144277      -0.00090618      -0.07256998 </v>
   <v>      -0.01568507       0.00028051       0.01397589 </v>
   <v>       0.00046853      -0.01687861       0.01301913 </v>
   <v>      -0.00521357      -0.00673172      -0.02240923 </v>
   <v>      -0.00025022      -0.00048174       0.04429139 </v>
   <v>       0.03208227       0.00005182       0.25609855 </v>
   <v>      -0.00031959       0.03352782       0.25570557 </v>
   <v>      -0.02908895      -0.02873243       2.50233859 </v>
   <v>      -0.00035340      -0.00152840       2.46557915 </v>
   <v>      -0.01119719       0.00493030      -2.49515029 </v>
   <v>       0.00045510       0.04604022      -2.48489948 </v>
   <v>      -0.03757067      -0.03920370      -0.25733622 </v>
   <v>      -0.00152174       0.00486569      -0.25991725 </v>
   <v>      -0.01748750       0.01453062      -0.02761811 </v>
   <v>       0.00239139       0.03390950      -0.01079543 </v>
   <v>      -0.00258611      -0.00620193       0.03025403 </v>
   <v>       0.00046446       0.01661191       0.01181435 </v>
   <v>      -0.00732480       0.00626869      -0.02358881 </v>
   <v>       0.00037421      -0.01636981      -0.00274609 </v>
   <v>      -0.01365302      -0.01336558       0.27912097 </v>
   <v>      -0.00015418      -0.03355971       0.25425138 </v>
   <v>      -0.03129556       0.03039907       2.50274707 </v>
   <v>      -0.00194647      -0.00516164       2.48702257 </v>
   <v>       0.04200880      -0.00082425      -2.48832863 </v>
   <v>       0.00092618      -0.04240390      -2.48720693 </v>
   <v>      -0.03748868       0.03847281      -0.25526351 </v>
   <v>      -0.00027960       0.00134547      -0.22668001 </v>
   <v>       0.03167909      -0.00067809      -0.00546376 </v>
   <v>       0.00133252      -0.03268745      -0.00951716 </v>
   <v>      -0.00459971       0.00656753       0.03100390 </v>
   <v>      -0.00012251       0.00044765      -0.03493731 </v>
   <v>      -0.01691647       0.00057136      -0.00521957 </v>
   <v>      -0.00023265       0.01710062      -0.00332809 </v>
   <v>      -0.01350252       0.01343404       0.27838395 </v>
   <v>      -0.00040627       0.00068671       0.31742916 </v>
   <v>      -0.00844912      -0.00079342       2.48701391 </v>
   <v>       0.00065700       0.00731508       2.48818730 </v>
   <v>      -0.00406595      -0.00465871      -2.49496691 </v>
   <v>      -0.00013377       0.00004235      -2.50893250 </v>
   <v>      -0.00563451       0.00006762      -0.26287434 </v>
   <v>       0.00005043      -0.00551774      -0.26286473 </v>
   <v>      -0.01349802      -0.01331380      -0.03245504 </v>
   <v>      -0.00010719      -0.00004214      -0.07371225 </v>
   <v>      -0.01671111      -0.00004741       0.01294419 </v>
   <v>       0.00005988      -0.01640191       0.01315222 </v>
   <v>      -0.00610954      -0.00592606      -0.02074448 </v>
   <v>       0.00011047       0.00011828       0.04501601 </v>
   <v>       0.03294301      -0.00014919       0.25596133 </v>
   <v>      -0.00029385       0.03308141       0.25591336 </v>
   <v>      -0.02755877      -0.02749627       2.50321072 </v>
   <v>      -0.00009096       0.00008348       2.46811990 </v>
   <v>      -0.00546111       0.00503822      -2.49621511 </v>
   <v>       0.00034421       0.04359313      -2.48823844 </v>
   <v>      -0.03789539      -0.03819398      -0.25418645 </v>
   <v>      -0.00011087       0.00551533      -0.26302728 </v>
   <v>      -0.01414609       0.01360208      -0.03286802 </v>
   <v>       0.00020190       0.03332660      -0.00913116 </v>
   <v>      -0.00619183      -0.00642546       0.03120677 </v>
   <v>      -0.00005024       0.01673839       0.01289084 </v>
   <v>      -0.00636029       0.00586898      -0.02077747 </v>
   <v>       0.00039626      -0.01692994      -0.00359856 </v>
   <v>      -0.01366178      -0.01364722       0.27906878 </v>
   <v>      -0.00063662      -0.03370112       0.25655935 </v>
   <v>      -0.02873248       0.02794473       2.50306253 </v>
   <v>       0.00029814      -0.00654433       2.48867426 </v>
   <v>       0.04386745      -0.00008057      -2.48771345 </v>
   <v>       0.00063284      -0.04373613      -2.48786997 </v>
   <v>      -0.03763031       0.03801919      -0.25427362 </v>
   <v>       0.00036114      -0.00012439      -0.22790093 </v>
   <v>       0.03356522      -0.00022367      -0.00837455 </v>
   <v>       0.00048145      -0.03352156      -0.00918937 </v>
   <v>      -0.00526376       0.00623466       0.03156381 </v>
   <v>       0.00073813       0.00011687      -0.03518269 </v>
   <v>      -0.01659414       0.00001844      -0.00430083 </v>
   <v>       0.00054809       0.01694790      -0.00324755 </v>
   <v>      -0.01336695       0.01389979       0.27904356 </v>
   <v>       0.00030270       0.00010873       0.31875203 </v>
   <v>      -0.00647937      -0.00046872       2.48754183 </v>
   <v>       0.00094003       0.00694051       2.48804045 </v>
   <v>       0.00522483      -0.00545831      -2.49559187 </v>
   <v>       0.04347634       0.00055901      -2.48780084 </v>
   <v>       0.00560179       0.00011474      -0.26280065 </v>
   <v>      -0.03892387      -0.03775840      -0.25438114 </v>
   <v>       0.01404636      -0.01402371      -0.03281533 </v>
   <v>       0.03329014       0.00021550      -0.00931157 </v>
   <v>       0.01646785       0.00036599       0.01270270 </v>
   <v>      -0.00674999      -0.00560960       0.03198882 </v>
   <v>       0.00598321      -0.00618402      -0.02117062 </v>
   <v>      -0.01712830       0.00015485      -0.00339398 </v>
   <v>      -0.03344745       0.00075296       0.25649778 </v>
   <v>      -0.01418720      -0.01316725       0.27866146 </v>
   <v>       0.02849527      -0.02857828       2.50320988 </v>
   <v>      -0.00684071      -0.00005091       2.48799565 </v>
   <v>       0.00541630       0.00548505      -2.49661675 </v>
   <v>      -0.00562498      -0.00570675      -2.49606705 </v>
   <v>       0.03780563      -0.03790540      -0.25433775 </v>
   <v>      -0.03808831       0.03819738      -0.25432208 </v>
   <v>       0.01381220       0.01407643      -0.03301378 </v>
   <v>      -0.01401848      -0.01401951      -0.03269353 </v>
   <v>       0.00601148      -0.00603083       0.03168406 </v>
   <v>      -0.00634309       0.00628793       0.03125499 </v>
   <v>       0.00603171       0.00613076      -0.02105331 </v>
   <v>      -0.00611003      -0.00626001      -0.02135276 </v>
   <v>       0.01366018      -0.01363141       0.27889622 </v>
   <v>      -0.01388501       0.01365812       0.27876125 </v>
   <v>       0.02841040       0.02864189       2.50247586 </v>
   <v>      -0.02854753      -0.02866476       2.50255568 </v>
   <v>      -0.04417449       0.00011981      -2.48817745 </v>
   <v>      -0.00563218       0.00587742      -2.49531343 </v>
   <v>       0.03782575       0.03788554      -0.25409812 </v>
   <v>      -0.00595110      -0.00010826      -0.26279926 </v>
   <v>      -0.03394043       0.00025163      -0.00964097 </v>
   <v>      -0.01410597       0.01420107      -0.03232935 </v>
   <v>       0.00591710       0.00575089       0.03157542 </v>
   <v>      -0.01735670      -0.00009959       0.01233004 </v>
   <v>       0.01662508       0.00024840      -0.00315250 </v>
   <v>      -0.00642576       0.00642433      -0.02180276 </v>
   <v>       0.01365302       0.01309372       0.27827454 </v>
   <v>       0.03295860      -0.00022915       0.25648644 </v>
   <v>       0.00595257       0.00034889       2.48877123 </v>
   <v>      -0.02940551       0.02901102       2.50279941 </v>
   <v>       0.00605947      -0.00579038      -2.49419330 </v>
   <v>       0.04495510       0.00057830      -2.48861681 </v>
   <v>       0.00716589       0.00100101      -0.26323649 </v>
   <v>      -0.03830547      -0.03781894      -0.25446011 </v>
   <v>       0.01431279      -0.01351682      -0.03219694 </v>
   <v>       0.03245877      -0.00076259      -0.00956623 </v>
   <v>       0.01641580       0.00090749       0.01263737 </v>
   <v>      -0.00632594      -0.00572821       0.03107005 </v>
   <v>       0.00637771      -0.00619143      -0.02181447 </v>
   <v>      -0.01756946      -0.00057116      -0.00279590 </v>
   <v>      -0.03305457       0.00090792       0.25614050 </v>
   <v>      -0.01384112      -0.01341047       0.27860491 </v>
   <v>       0.02851358      -0.02911308       2.50315290 </v>
   <v>      -0.00578677      -0.00033659       2.48918328 </v>
   <v>       0.00983179       0.00633294      -2.49109000 </v>
   <v>      -0.00559622      -0.00564184      -2.49791685 </v>
   <v>       0.03972455      -0.03818945      -0.25635108 </v>
   <v>      -0.03733007       0.03792458      -0.25431213 </v>
   <v>       0.01359840       0.01433266      -0.02961755 </v>
   <v>      -0.01543298      -0.01363451      -0.03318546 </v>
   <v>       0.00449927      -0.00637359       0.03221575 </v>
   <v>      -0.00344289       0.00564384       0.03046258 </v>
   <v>       0.00640632       0.00669906      -0.02450034 </v>
   <v>      -0.00703696      -0.00510101      -0.02019533 </v>
   <v>       0.01306688      -0.01403935       0.27978505 </v>
   <v>      -0.01233591       0.01304485       0.27806850 </v>
   <v>       0.03032604       0.02939226       2.50075271 </v>
   <v>      -0.02896870      -0.02763716       2.50335149 </v>
   <v>      -0.04210294       0.00003307      -2.48605737 </v>
   <v>      -0.00582039       0.00492982      -2.49605945 </v>
   <v>       0.03832413       0.03785577      -0.25426825 </v>
   <v>      -0.00559755       0.00031125      -0.26237276 </v>
   <v>      -0.03376876      -0.00048736      -0.00825363 </v>
   <v>      -0.01413631       0.01388409      -0.03302005 </v>
   <v>       0.00619524       0.00612564       0.03140314 </v>
   <v>      -0.01549829       0.00064218       0.01195134 </v>
   <v>       0.01730267      -0.00031182      -0.00426076 </v>
   <v>      -0.00652215       0.00563990      -0.02086469 </v>
   <v>       0.01406816       0.01369770       0.27851999 </v>
   <v>       0.03302458       0.00036588       0.25618696 </v>
   <v>       0.00710627       0.00028804       2.48750449 </v>
   <v>      -0.02963402       0.02772264       2.50321422 </v>
   <v>       0.00500039      -0.00573644      -2.49616951 </v>
   <v>       0.04362850       0.00023931      -2.48804736 </v>
   <v>       0.00550417       0.00003185      -0.26284253 </v>
   <v>      -0.03839558      -0.03787250      -0.25426773 </v>
   <v>       0.01344803      -0.01431057      -0.03300707 </v>
   <v>       0.03328720       0.00020312      -0.00902923 </v>
   <v>       0.01666440      -0.00011878       0.01284312 </v>
   <v>      -0.00672930      -0.00603517       0.03100353 </v>
   <v>       0.00574740      -0.00637552      -0.02074339 </v>
   <v>      -0.01704983       0.00048451      -0.00370677 </v>
   <v>      -0.03371333      -0.00053614       0.25665643 </v>
   <v>      -0.01389111      -0.01357658       0.27895875 </v>
   <v>       0.02795937      -0.02895410       2.50329465 </v>
   <v>      -0.00648160       0.00007783       2.48847559 </v>
   <v>       0.00519523       0.00547641      -2.49622326 </v>
   <v>      -0.00549570      -0.00541513      -2.49608020 </v>
   <v>       0.03814971      -0.03788858      -0.25417302 </v>
   <v>      -0.03805553       0.03824389      -0.25428478 </v>
   <v>       0.01379440       0.01393020      -0.03238526 </v>
   <v>      -0.01409585      -0.01410665      -0.03304576 </v>
   <v>       0.00624238      -0.00579113       0.03152579 </v>
   <v>      -0.00599598       0.00631998       0.03146798 </v>
   <v>       0.00638344       0.00651692      -0.02151297 </v>
   <v>      -0.00616895      -0.00615256      -0.02096722 </v>
   <v>       0.01345606      -0.01375225       0.27882482 </v>
   <v>      -0.01380729       0.01356471       0.27862974 </v>
   <v>       0.02859201       0.02888781       2.50291184 </v>
   <v>      -0.02852132      -0.02811204       2.50208260 </v>
   <v>      -0.04369970       0.00011606      -2.48827614 </v>
   <v>      -0.00666557       0.00513097      -2.49484379 </v>
   <v>       0.03790722       0.03800678      -0.25408952 </v>
   <v>      -0.00630844      -0.00024573      -0.26282380 </v>
   <v>      -0.03356928       0.00004910      -0.00998900 </v>
   <v>      -0.01484229       0.01396539      -0.03218031 </v>
   <v>       0.00599071       0.00578015       0.03165177 </v>
   <v>      -0.01776137      -0.00074751       0.01273740 </v>
   <v>       0.01695636       0.00003280      -0.00272780 </v>
   <v>      -0.00729967       0.00622498      -0.02157438 </v>
   <v>       0.01339838       0.01328272       0.27847503 </v>
   <v>       0.03282247      -0.00033411       0.25624534 </v>
   <v>       0.00683887       0.00010761       2.48824130 </v>
   <v>      -0.02959054       0.02905939       2.50242934 </v>
   <v>      -0.00058423       0.04485209      -2.48683452 </v>
   <v>      -0.04353156       0.00094460      -2.48737402 </v>
   <v>      -0.00020442       0.00095753      -0.22801852 </v>
   <v>       0.03835639      -0.03694618      -0.25485365 </v>
   <v>      -0.00076190       0.03433364      -0.00748041 </v>
   <v>      -0.03337471       0.00082768      -0.00931995 </v>
   <v>      -0.00015275       0.00088525      -0.03452121 </v>
   <v>       0.00672691      -0.00469074       0.03063098 </v>
   <v>      -0.00096473      -0.01609920      -0.00503130 </v>
   <v>       0.01712078       0.00138472      -0.00328629 </v>
   <v>       0.00011202       0.00050472       0.31839145 </v>
   <v>       0.01393302      -0.01294081       0.27966003 </v>
   <v>      -0.00086517      -0.00581959       2.48732681 </v>
   <v>       0.00632465       0.00139582       2.48785480 </v>
   <v>      -0.00003731      -0.04374527      -2.48778767 </v>
   <v>       0.00536630      -0.00586228      -2.49543839 </v>
   <v>      -0.00018029      -0.00603542      -0.26272420 </v>
   <v>       0.03804050       0.03807904      -0.25408737 </v>
   <v>       0.00014172      -0.03356302      -0.00958324 </v>
   <v>       0.01401190      -0.01428702      -0.03208930 </v>
   <v>      -0.00014274      -0.01716040       0.01245229 </v>
   <v>       0.00598287       0.00557332       0.03176445 </v>
   <v>       0.00013951       0.01702675      -0.00312493 </v>
   <v>       0.00620696      -0.00644706      -0.02182274 </v>
   <v>      -0.00082439       0.03332465       0.25654041 </v>
   <v>       0.01337844       0.01364375       0.27867354 </v>
   <v>       0.00044541       0.00656474       2.48846594 </v>
   <v>       0.02836487      -0.02938939       2.50258974 </v>
   <v>      -0.00006924      -0.00005211      -2.50784488 </v>
   <v>       0.00565693       0.00599650      -2.49571148 </v>
   <v>      -0.00017175       0.00589049      -0.26293853 </v>
   <v>       0.00572000      -0.00014209      -0.26278718 </v>
   <v>      -0.00010664      -0.00014112      -0.07252746 </v>
   <v>       0.01407075       0.01396807      -0.03135044 </v>
   <v>      -0.00047911       0.01726937       0.01313592 </v>
   <v>       0.01671278      -0.00030651       0.01280466 </v>
   <v>       0.00019706      -0.00014707       0.04352272 </v>
   <v>       0.00599699       0.00615036      -0.02299493 </v>
   <v>      -0.00046134      -0.03312852       0.25672808 </v>
   <v>      -0.03336697      -0.00027219       0.25644962 </v>
   <v>      -0.00018393      -0.00050456       2.46671701 </v>
   <v>       0.02880672       0.02854183       2.50114542 </v>
   <v>       0.00069863       0.04472305      -2.48882104 </v>
   <v>      -0.04467180       0.00076172      -2.48983127 </v>
   <v>      -0.00030923       0.00074823      -0.22782546 </v>
   <v>       0.03826009      -0.03756175      -0.25482187 </v>
   <v>      -0.00009853       0.03363277      -0.00976950 </v>
   <v>      -0.03414642      -0.00025737      -0.00854651 </v>
   <v>      -0.00241665       0.00104520      -0.03515697 </v>
   <v>       0.00605506      -0.00539092       0.03191437 </v>
   <v>      -0.00021015      -0.01711572      -0.00364287 </v>
   <v>       0.01727072      -0.00050383      -0.00406903 </v>
   <v>       0.00000034       0.00054543       0.31842126 </v>
   <v>       0.01327485      -0.01338177       0.27882617 </v>
   <v>      -0.00055764      -0.00597026       2.48820794 </v>
   <v>       0.00755594       0.00062769       2.48840197 </v>
   <v>       0.00178269      -0.04357979      -2.49143592 </v>
   <v>       0.00450087      -0.00571538      -2.49827531 </v>
   <v>      -0.00079351      -0.00586767      -0.26313130 </v>
   <v>       0.04047096       0.03800438      -0.25634458 </v>
   <v>       0.00155368      -0.03373167      -0.01047398 </v>
   <v>       0.01237988      -0.01319875      -0.03131967 </v>
   <v>      -0.00399744      -0.01729522       0.01282686 </v>
   <v>       0.00937380       0.00597915       0.03173531 </v>
   <v>       0.00123558       0.01756464      -0.00272571 </v>
   <v>       0.00501185      -0.00589696      -0.02210211 </v>
   <v>      -0.00154437       0.03276946       0.25633695 </v>
   <v>       0.01504380       0.01361824       0.27932522 </v>
   <v>       0.00117999       0.00698546       2.48972946 </v>
   <v>       0.02728740      -0.02860147       2.50322667 </v>
   <v>       0.00130331      -0.00082922      -2.50959281 </v>
   <v>       0.00521244       0.00451747      -2.49590707 </v>
   <v>      -0.00024248       0.00554598      -0.26307175 </v>
   <v>       0.00692455      -0.00043126      -0.26370969 </v>
   <v>       0.00086892      -0.00019861      -0.07387921 </v>
   <v>       0.01404741       0.01369059      -0.03122765 </v>
   <v>      -0.00104445       0.01608681       0.01327744 </v>
   <v>       0.01868950      -0.00061424       0.01298590 </v>
   <v>      -0.00028335      -0.00012301       0.04479793 </v>
   <v>       0.00640243       0.00652208      -0.02347998 </v>
   <v>       0.00017754      -0.03342878       0.25692124 </v>
   <v>      -0.03278232      -0.00029085       0.25695093 </v>
   <v>      -0.00096427      -0.00040915       2.46818230 </v>
   <v>       0.02837979       0.02739306       2.50091675 </v>
   <v>      -0.00008873       0.04386470      -2.48770312 </v>
   <v>      -0.04378973       0.00053102      -2.48768791 </v>
   <v>      -0.00012589       0.00040009      -0.22788895 </v>
   <v>       0.03802152      -0.03768620      -0.25435482 </v>
   <v>      -0.00028263       0.03355856      -0.00820678 </v>
   <v>      -0.03351939       0.00041872      -0.00889527 </v>
   <v>       0.00023363       0.00080057      -0.03528272 </v>
   <v>       0.00610638      -0.00540300       0.03180923 </v>
   <v>       0.00017740      -0.01683116      -0.00458825 </v>
   <v>       0.01679493       0.00047351      -0.00352948 </v>
   <v>       0.00001462       0.00019490       0.31905158 </v>
   <v>       0.01397144      -0.01309830       0.27866758 </v>
   <v>      -0.00099008      -0.00647020       2.48722730 </v>
   <v>       0.00667821       0.00161957       2.48756293 </v>
   <v>       0.00005948      -0.04356604      -2.48806066 </v>
   <v>       0.00525360      -0.00640237      -2.49487061 </v>
   <v>      -0.00021988      -0.00617771      -0.26279052 </v>
   <v>       0.03801046       0.03810072      -0.25408418 </v>
   <v>      -0.00001491      -0.03333193      -0.00968012 </v>
   <v>       0.01385201      -0.01438911      -0.03226202 </v>
   <v>      -0.00056299      -0.01734385       0.01301250 </v>
   <v>       0.00581855       0.00612815       0.03149592 </v>
   <v>       0.00005236       0.01725014      -0.00290899 </v>
   <v>       0.00611682      -0.00698323      -0.02154387 </v>
   <v>      -0.00070000       0.03286147       0.25627182 </v>
   <v>       0.01366356       0.01367431       0.27828168 </v>
   <v>       0.00048100       0.00677459       2.48848955 </v>
   <v>       0.02866264      -0.02906682       2.50272396 </v>
   <v>      -0.00102704      -0.00106518      -2.50716157 </v>
   <v>       0.00580402       0.00563280      -2.49424384 </v>
   <v>      -0.00097577       0.00555381      -0.26337031 </v>
   <v>       0.00580693      -0.00096536      -0.26321041 </v>
   <v>      -0.00054901      -0.00084923      -0.07225776 </v>
   <v>       0.01430214       0.01373871      -0.02979791 </v>
   <v>      -0.00105378       0.01642731       0.01262743 </v>
   <v>       0.01663375      -0.00089389       0.01293218 </v>
   <v>      -0.00042385      -0.00079770       0.04376086 </v>
   <v>       0.00647220       0.00581730      -0.02457350 </v>
   <v>      -0.00034294      -0.03322146       0.25679609 </v>
   <v>      -0.03329725      -0.00059399       0.25672470 </v>
   <v>      -0.00003927      -0.00076018       2.46679987 </v>
   <v>       0.02848004       0.02820819       2.50138754 </v>
   <v>      -0.61412678       1.35460349       2.22625194 </v>
   <v>       0.46370048      -1.55693219      -3.38741017 </v>
   <v>      -0.29708125       1.64558856       3.13023143 </v>
   <v>       1.01305441      -0.84957572      -1.91286771 </v>
   <v>      -3.22788164       0.55050404      -1.70203886 </v>
   <v>       3.56088523       3.31538657      -0.38348324 </v>
   <v>       3.21103467      -0.53544514       1.69215795 </v>
   <v>       1.15333048      -4.56543896      -0.75908010 </v>
   <v>       3.17611100      -0.63024179       1.65828794 </v>
   <v>      -1.25075237       4.52406594       0.81256736 </v>
   <v>      -1.18492313       4.57998548       0.90475251 </v>
   <v>       1.19939915      -4.58267817      -0.90025933 </v>
   <v>      -3.20423928       0.52604257      -1.59968528 </v>
   <v>      -0.61775629      -0.08682563       1.10156625 </v>
   <v>      -3.38545087      -3.69999847      -0.24833973 </v>
  </varray>
  <varray name="stress" >
   <v>     142.26372508       0.05515762       0.03229452 </v>
   <v>       0.05515787     142.34309589       0.00107287 </v>
   <v>       0.03229397       0.00107349     134.98667080 </v>
  </varray>
  <energy>
   <i name="e_fr_energy">  -2531.90380592 </i>
   <i name="e_wo_entrp">  -2531.13097113 </i>
   <i name="e_0_energy">  -2531.64619432 </i>
  </energy>
  <time name="totalsc">  891.61  903.36</time>
  <eigenvalues>
   <array>
    <dimension dim="1">band</dimension>
    <dimension dim="2">kpoint</dimension>
    <dimension dim="3">spin</dimension>
    <field>eigene</field>
    <field>occ</field>
    <set>
     <set comment="spin 1">
      <set comment="kpoint 1">
       <r>  -19.0343    1.0000 </r>
       <r>  -17.5231    1.0000 </r>
       <r>  -15.7599    1.0000 </r>
       <r>  -13.2659    1.0000 </r>
       <r>  -12.7770    1.0000 </r>
       <r>  -11.1303    1.0000 </r>
       <r>  -10.9775    1.0000 </r>
       <r>  -10.9768    1.0000 </r>
       <r>  -10.9768    1.0000 </r>
       <r>  -10.9767    1.0000 </r>
       <r>  -10.8310    1.0000 </r>
       <r>  -10.8304    1.0000 </r>
       <r>  -10.8303    1.0000 </r>
       <r>  -10.8301    1.0000 </r>
       <r>  -10.5370    1.0000 </r>
       <r>  -10.5366    1.0000 </r>
       <r>  -10.5366    1.0000 </r>
       <r>  -10.5365    1.0000 </r>
       <r>  -10.4539    1.0000 </r>
       <r>  -10.4130    1.0000 </r>
       <r>  -10.4125    1.0000 </r>
       <r>  -10.4124    1.0000 </r>
       <r>  -10.4122    1.0000 </r>
       <r>  -10.4121    1.0000 </r>
       <r>  -10.4120    1.0000 </r>
       <r>  -10.4120    1.0000 </r>
       <r>  -10.4119    1.0000 </r>
       <r>  -10.4046    1.0000 </r>
       <r>  -10.3163    1.0000 </r>
       <r>  -10.3151    1.0000 </r>
       <r>  -10.3151    1.0000 </r>
       <r>  -10.3150    1.0000 </r>
       <r>  -10.1943    1.0000 </r>
       <r>  -10.1933    1.0000 </r>
       <r>  -10.1931    1.0000 </r>
       <r>  -10.1929    1.0000 </r>
       <r>  -10.0669    1.0000 </r>
       <r>  -10.0668    1.0000 </r>
       <r>  -10.0668    1.0000 </r>
       <r>  -10.0666    1.0000 </r>
       <r>   -9.9240    1.0000 </r>
       <r>   -9.9220    1.0000 </r>
       <r>   -9.9219    1.0000 </r>
       <r>   -9.9217    1.0000 </r>
       <r>   -9.9176    1.0000 </r>
       <r>   -9.9164    1.0000 </r>
       <r>   -9.8902    1.0000 </r>
       <r>   -9.8898    1.0000 </r>
       <r>   -9.8898    1.0000 </r>
       <r>   -9.8897    1.0000 </r>
       <r>   -9.8632    1.0000 </r>
       <r>   -9.8572    1.0000 </r>
       <r>   -9.8566    1.0000 </r>
       <r>   -9.8562    1.0000 </r>
       <r>   -9.8560    1.0000 </r>
       <r>   -9.8560    1.0000 </r>
       <r>   -9.8560    1.0000 </r>
       <r>   -9.8560    1.0000 </r>
       <r>   -9.8560    1.0000 </r>
       <r>   -9.8322    1.0000 </r>
       <r>   -9.8314    1.0000 </r>
       <r>   -9.8313    1.0000 </r>
       <r>   -9.8312    1.0000 </r>
       <r>   -9.8216    1.0000 </r>
       <r>   -9.8178    1.0000 </r>
       <r>   -9.8177    1.0000 </r>
       <r>   -9.8176    1.0000 </r>
       <r>   -9.8169    1.0000 </r>
       <r>   -9.8060    1.0000 </r>
       <r>   -9.8059    1.0000 </r>
       <r>   -9.8056    1.0000 </r>
       <r>   -9.8055    1.0000 </r>
       <r>   -9.8055    1.0000 </r>
       <r>   -9.8054    1.0000 </r>
       <r>   -9.8054    1.0000 </r>
       <r>   -9.8040    1.0000 </r>
       <r>   -9.7751    1.0000 </r>
       <r>   -9.7744    1.0000 </r>
       <r>   -9.7744    1.0000 </r>
       <r>   -9.7743    1.0000 </r>
       <r>   -9.7489    1.0000 </r>
       <r>   -9.7484    1.0000 </r>
       <r>   -9.7484    1.0000 </r>
       <r>   -9.7483    1.0000 </r>
       <r>   -9.7471    1.0000 </r>
       <r>   -9.7465    1.0000 </r>
       <r>   -9.7464    1.0000 </r>
       <r>   -9.7463    1.0000 </r>
       <r>   -9.7026    1.0000 </r>
       <r>   -9.7025    1.0000 </r>
       <r>   -9.7023    1.0000 </r>
       <r>   -9.7022    1.0000 </r>
       <r>   -9.6979    1.0000 </r>
       <r>   -9.6946    1.0000 </r>
       <r>   -9.6946    1.0000 </r>
       <r>   -9.6943    1.0000 </r>
       <r>   -9.6942    1.0000 </r>
       <r>   -9.6936    1.0000 </r>
       <r>   -9.6930    1.0000 </r>
       <r>   -9.6929    1.0000 </r>
       <r>   -9.6927    1.0000 </r>
       <r>   -9.6892    1.0000 </r>
       <r>   -9.6890    1.0000 </r>
       <r>   -9.6889    1.0000 </r>
       <r>   -9.6887    1.0000 </r>
       <r>   -9.6707    1.0000 </r>
       <r>   -9.6707    1.0000 </r>
       <r>   -9.6704    1.0000 </r>
       <r>   -9.6703    1.0000 </r>
       <r>   -9.6658    1.0000 </r>
       <r>   -9.6658    1.0000 </r>
       <r>   -9.6655    1.0000 </r>
       <r>   -9.6655    1.0000 </r>
       <r>   -9.6454    1.0000 </r>
       <r>   -9.6454    1.0000 </r>
       <r>   -9.6184    1.0000 </r>
       <r>   -9.6105    1.0000 </r>
       <r>   -9.6099    1.0000 </r>
       <r>   -9.6098    1.0000 </r>
       <r>   -9.6098    1.0000 </r>
       <r>   -9.6092    1.0000 </r>
       <r>   -9.6091    1.0000 </r>
       <r>   -9.6091    1.0000 </r>
       <r>   -9.6090    1.0000 </r>
       <r>   -9.6088    1.0000 </r>
       <r>   -9.6087    1.0000 </r>
       <r>   -9.6087    1.0000 </r>
       <r>   -9.6087    1.0000 </r>
       <r>   -9.5985    1.0000 </r>
       <r>   -9.5981    1.0000 </r>
       <r>   -9.5981    1.0000 </r>
       <r>   -9.5981    1.0000 </r>
       <r>   -9.5941    1.0000 </r>
       <r>   -9.5940    1.0000 </r>
       <r>   -9.5938    1.0000 </r>
       <r>   -9.5937    1.0000 </r>
       <r>   -9.5897    1.0000 </r>
       <r>   -9.5896    1.0000 </r>
       <r>   -9.5892    1.0000 </r>
       <r>   -9.5892    1.0000 </r>
       <r>   -9.5850    1.0000 </r>
       <r>   -9.5849    1.0000 </r>
       <r>   -9.5847    1.0000 </r>
       <r>   -9.5847    1.0000 </r>
       <r>   -9.5845    1.0000 </r>
       <r>   -9.5845    1.0000 </r>
       <r>   -9.5844    1.0000 </r>
       <r>   -9.5844    1.0000 </r>
       <r>   -9.5790    1.0000 </r>
       <r>   -9.5790    1.0000 </r>
       <r>   -9.5788    1.0000 </r>
       <r>   -9.5788    1.0000 </r>
       <r>   -9.5786    1.0000 </r>
       <r>   -9.5786    1.0000 </r>
       <r>   -9.5785    1.0000 </r>
       <r>   -9.5785    1.0000 </r>
       <r>   -9.5760    1.0000 </r>
       <r>   -9.5683    1.0000 </r>
       <r>   -9.5683    1.0000 </r>
       <r>   -9.5683    1.0000 </r>
       <r>   -9.5682    1.0000 </r>
       <r>   -9.5663    1.0000 </r>
       <r>   -9.5662    1.0000 </r>
       <r>   -9.5662    1.0000 </r>
       <r>   -9.5662    1.0000 </r>
       <r>   -9.5496    1.0000 </r>
       <r>   -9.5483    1.0000 </r>
       <r>   -9.5483    1.0000 </r>
       <r>   -9.5482    1.0000 </r>
       <r>   -9.5481    1.0000 </r>
       <r>   -9.5429    1.0000 </r>
       <r>   -9.5427    1.0000 </r>
       <r>   -9.5426    1.0000 </r>
       <r>   -9.5425    1.0000 </r>
       <r>   -9.5414    1.0000 </r>
       <r>   -9.5411    1.0000 </r>
       <r>   -9.5410    1.0000 </r>
       <r>   -9.5410    1.0000 </r>
       <r>   -9.5348    1.0000 </r>
       <r>   -9.5345    1.0000 </r>
       <r>   -9.5344    1.0000 </r>
       <r>   -9.5344    1.0000 </r>
       <r>   -9.5343    1.0000 </r>
       <r>   -9.5342    1.0000 </r>
       <r>   -9.5341    1.0000 </r>
       <r>   -9.5341    1.0000 </r>
       <r>   -9.5284    1.0000 </r>
       <r>   -9.5284    1.0000 </r>
       <r>   -9.5283    1.0000 </r>
       <r>   -9.5282    1.0000 </r>
       <r>   -9.5165    1.0000 </r>
       <r>   -9.5161    1.0000 </r>
       <r>   -9.5160    1.0000 </r>
       <r>   -9.5159    1.0000 </r>
       <r>   -9.5157    1.0000 </r>
       <r>   -9.5156    1.0000 </r>
       <r>   -9.5156    1.0000 </r>
       <r>   -9.5155    1.0000 </r>
       <r>   -9.5004    1.0000 </r>
       <r>   -9.5002    1.0000 </r>
       <r>   -9.4997    1.0000 </r>
       <r>   -9.4997    1.0000 </r>
       <r>   -9.4996    1.0000 </r>
       <r>   -9.4996    1.0000 </r>
       <r>   -9.4996    1.0000 </r>
       <r>   -9.4995    1.0000 </r>
       <r>   -9.4966    1.0000 </r>
       <r>   -9.4965    1.0000 </r>
       <r>   -9.4963    1.0000 </r>
       <r>   -9.4962    1.0000 </r>
       <r>   -9.4962    1.0000 </r>
       <r>   -9.4961    1.0000 </r>
       <r>   -9.4960    1.0000 </r>
       <r>   -9.4960    1.0000 </r>
       <r>   -9.4957    1.0000 </r>
       <r>   -9.4956    1.0000 </r>
       <r>   -9.4955    1.0000 </r>
       <r>   -9.4954    1.0000 </r>
       <r>   -9.4953    1.0000 </r>
       <r>   -9.4953    1.0000 </r>
       <r>   -9.4952    1.0000 </r>
       <r>   -9.4952    1.0000 </r>
       <r>   -9.4949    1.0000 </r>
       <r>   -9.4948    1.0000 </r>
       <r>   -9.4948    1.0000 </r>
       <r>   -9.4947    1.0000 </r>
       <r>   -9.4945    1.0000 </r>
       <r>   -9.4945    1.0000 </r>
       <r>   -9.4944    1.0000 </r>
       <r>   -9.4944    1.0000 </r>
       <r>   -9.4720    1.0000 </r>
       <r>   -9.4712    1.0000 </r>
       <r>   -9.4711    1.0000 </r>
       <r>   -9.4711    1.0000 </r>
       <r>   -9.4662    1.0000 </r>
       <r>   -9.4660    1.0000 </r>
       <r>   -9.4659    1.0000 </r>
       <r>   -9.4658    1.0000 </r>
       <r>   -9.4656    1.0000 </r>
       <r>   -9.4655    1.0000 </r>
       <r>   -9.4655    1.0000 </r>
       <r>   -9.4654    1.0000 </r>
       <r>   -9.4428    1.0000 </r>
       <r>   -9.4422    1.0000 </r>
       <r>   -9.4422    1.0000 </r>
       <r>   -9.4421    1.0000 </r>
       <r>   -9.4315    1.0000 </r>
       <r>   -9.4313    1.0000 </r>
       <r>   -9.4311    1.0000 </r>
       <r>   -9.4311    1.0000 </r>
       <r>   -9.4310    1.0000 </r>
       <r>   -9.4307    1.0000 </r>
       <r>   -9.4307    1.0000 </r>
       <r>   -9.4305    1.0000 </r>
       <r>   -9.4263    1.0000 </r>
       <r>   -9.4263    1.0000 </r>
       <r>   -9.4262    1.0000 </r>
       <r>   -9.4261    1.0000 </r>
       <r>   -9.4217    1.0000 </r>
       <r>   -9.4217    1.0000 </r>
       <r>   -9.4217    1.0000 </r>
       <r>   -9.4216    1.0000 </r>
       <r>   -9.4125    1.0000 </r>
       <r>   -9.4047    1.0000 </r>
       <r>   -9.4043    1.0000 </r>
       <r>   -9.4042    1.0000 </r>
       <r>   -9.4041    1.0000 </r>
       <r>   -9.4040    1.0000 </r>
       <r>   -9.4040    1.0000 </r>
       <r>   -9.4039    1.0000 </r>
       <r>   -9.4039    1.0000 </r>
       <r>   -9.4035    1.0000 </r>
       <r>   -9.4034    1.0000 </r>
       <r>   -9.4033    1.0000 </r>
       <r>   -9.4033    1.0000 </r>
       <r>   -9.4019    1.0000 </r>
       <r>   -9.3881    1.0000 </r>
       <r>   -9.3881    1.0000 </r>
       <r>   -9.3880    1.0000 </r>
       <r>   -9.3880    1.0000 </r>
       <r>   -9.3878    1.0000 </r>
       <r>   -9.3877    1.0000 </r>
       <r>   -9.3876    1.0000 </r>
       <r>   -9.3876    1.0000 </r>
       <r>   -9.3560    1.0000 </r>
       <r>   -9.3556    1.0000 </r>
       <r>   -9.3555    1.0000 </r>
       <r>   -9.3554    1.0000 </r>
       <r>   -9.3539    1.0000 </r>
       <r>   -9.3538    1.0000 </r>
       <r>   -9.3538    1.0000 </r>
       <r>   -9.3537    1.0000 </r>
       <r>   -9.3535    1.0000 </r>
       <r>   -9.3534    1.0000 </r>
       <r>   -9.3534    1.0000 </r>
       <r>   -9.3533    1.0000 </r>
       <r>   -9.3479    1.0000 </r>
       <r>   -9.3477    1.0000 </r>
       <r>   -9.3477    1.0000 </r>
       <r>   -9.3476    1.0000 </r>
       <r>   -9.3427    1.0000 </r>
       <r>   -9.3422    1.0000 </r>
       <r>   -9.3421    1.0000 </r>
       <r>   -9.3420    1.0000 </r>
       <r>   -9.3404    1.0000 </r>
       <r>   -9.3404    1.0000 </r>
       <r>   -9.3403    1.0000 </r>
       <r>   -9.3402    1.0000 </r>
       <r>   -9.3402    1.0000 </r>
       <r>   -9.3401    1.0000 </r>
       <r>   -9.3401    1.0000 </r>
       <r>   -9.3401    1.0000 </r>
       <r>   -9.3382    1.0000 </r>
       <r>   -9.3381    1.0000 </r>
       <r>   -9.3381    1.0000 </r>
       <r>   -9.3380    1.0000 </r>
       <r>   -9.3380    1.0000 </r>
       <r>   -9.3379    1.0000 </r>
       <r>   -9.3379    1.0000 </r>
       <r>   -9.3379    1.0000 </r>
       <r>   -9.3367    1.0000 </r>
       <r>   -9.3366    1.0000 </r>
       <r>   -9.3366    1.0000 </r>
       <r>   -9.3365    1.0000 </r>
       <r>   -9.3333    1.0000 </r>
       <r>   -9.3325    1.0000 </r>
       <r>   -9.3325    1.0000 </r>
       <r>   -9.3325    1.0000 </r>
       <r>   -9.3210    1.0000 </r>
       <r>   -9.3210    1.0000 </r>
       <r>   -9.3209    1.0000 </r>
       <r>   -9.3209    1.0000 </r>
       <r>   -9.3188    1.0000 </r>
       <r>   -9.3187    1.0000 </r>
       <r>   -9.3186    1.0000 </r>
       <r>   -9.3185    1.0000 </r>
       <r>   -9.3183    1.0000 </r>
       <r>   -9.3183    1.0000 </r>
       <r>   -9.3183    1.0000 </r>
       <r>   -9.3182    1.0000 </r>
       <r>   -9.3160    1.0000 </r>
       <r>   -9.3160    1.0000 </r>
       <r>   -9.3159    1.0000 </r>
       <r>   -9.3159    1.0000 </r>
       <r>   -9.3151    1.0000 </r>
       <r>   -9.3143    1.0000 </r>
       <r>   -9.3142    1.0000 </r>
       <r>   -9.3142    1.0000 </r>
       <r>   -9.3071    1.0000 </r>
       <r>   -9.3071    1.0000 </r>
       <r>   -9.3070    1.0000 </r>
       <r>   -9.3070    1.0000 </r>
       <r>   -9.3050    1.0000 </r>
       <r>   -9.3049    1.0000 </r>
       <r>   -9.3049    1.0000 </r>
       <r>   -9.3048    1.0000 </r>
       <r>   -9.2917    1.0000 </r>
       <r>   -9.2916    1.0000 </r>
       <r>   -9.2913    1.0000 </r>
       <r>   -9.2913    1.0000 </r>
       <r>   -9.2881    1.0000 </r>
       <r>   -9.2880    1.0000 </r>
       <r>   -9.2879    1.0000 </r>
       <r>   -9.2879    1.0000 </r>
       <r>   -9.2687    1.0000 </r>
       <r>   -9.2686    1.0000 </r>
       <r>   -9.2682    1.0000 </r>
       <r>   -9.2682    1.0000 </r>
       <r>   -9.2664    1.0000 </r>
       <r>   -9.2664    1.0000 </r>
       <r>   -9.2663    1.0000 </r>
       <r>   -9.2663    1.0000 </r>
       <r>   -9.2655    1.0000 </r>
       <r>   -9.2653    1.0000 </r>
       <r>   -9.2651    1.0000 </r>
       <r>   -9.2651    1.0000 </r>
       <r>   -9.2650    1.0000 </r>
       <r>   -9.2650    1.0000 </r>
       <r>   -9.2650    1.0000 </r>
       <r>   -9.2649    1.0000 </r>
       <r>   -9.2649    1.0000 </r>
       <r>   -9.2648    1.0000 </r>
       <r>   -9.2648    1.0000 </r>
       <r>   -9.2648    1.0000 </r>
       <r>   -9.2642    1.0000 </r>
       <r>   -9.2642    1.0000 </r>
       <r>   -9.2642    1.0000 </r>
       <r>   -9.2642    1.0000 </r>
       <r>   -9.2580    1.0000 </r>
       <r>   -9.2571    1.0000 </r>
       <r>   -9.2571    1.0000 </r>
       <r>   -9.2569    1.0000 </r>
       <r>   -9.2568    1.0000 </r>
       <r>   -9.2568    1.0000 </r>
       <r>   -9.2568    1.0000 </r>
       <r>   -9.2567    1.0000 </r>
       <r>   -9.2539    1.0000 </r>
       <r>   -9.2538    1.0000 </r>
       <r>   -9.2534    1.0000 </r>
       <r>   -9.2534    1.0000 </r>
       <r>   -9.2477    1.0000 </r>
       <r>   -9.2475    1.0000 </r>
       <r>   -9.2475    1.0000 </r>
       <r>   -9.2474    1.0000 </r>
       <r>   -9.2470    1.0000 </r>
       <r>   -9.2469    1.0000 </r>
       <r>   -9.2466    1.0000 </r>
       <r>   -9.2466    1.0000 </r>
       <r>   -9.2463    1.0000 </r>
       <r>   -9.2463    1.0000 </r>
       <r>   -9.2462    1.0000 </r>
       <r>   -9.2461    1.0000 </r>
       <r>   -9.2341    1.0000 </r>
       <r>   -9.2341    1.0000 </r>
       <r>   -9.2340    1.0000 </r>
       <r>   -9.2339    1.0000 </r>
       <r>   -9.2337    1.0000 </r>
       <r>   -9.2337    1.0000 </r>
       <r>   -9.2337    1.0000 </r>
       <r>   -9.2336    1.0000 </r>
       <r>   -9.2321    1.0000 </r>
       <r>   -9.2320    1.0000 </r>
       <r>   -9.2319    1.0000 </r>
       <r>   -9.2319    1.0000 </r>
       <r>   -9.2297    1.0000 </r>
       <r>   -9.2291    1.0000 </r>
       <r>   -9.2291    1.0000 </r>
       <r>   -9.2288    1.0000 </r>
       <r>   -9.2209    1.0000 </r>
       <r>   -9.2207    1.0000 </r>
       <r>   -9.2207    1.0000 </r>
       <r>   -9.2206    1.0000 </r>
       <r>   -9.2204    1.0000 </r>
       <r>   -9.2204    1.0000 </r>
       <r>   -9.2203    1.0000 </r>
       <r>   -9.2203    1.0000 </r>
       <r>   -9.2155    1.0000 </r>
       <r>   -9.2153    1.0000 </r>
       <r>   -9.2151    1.0000 </r>
       <r>   -9.2149    1.0000 </r>
       <r>   -9.2149    1.0000 </r>
       <r>   -9.2148    1.0000 </r>
       <r>   -9.2148    1.0000 </r>
       <r>   -9.2147    1.0000 </r>
       <r>   -9.2147    1.0000 </r>
       <r>   -9.2147    1.0000 </r>
       <r>   -9.2147    1.0000 </r>
       <r>   -9.2146    1.0000 </r>
       <r>   -9.2146    1.0000 </r>
       <r>   -9.2146    1.0000 </r>
       <r>   -9.2146    1.0000 </r>
       <r>   -9.2146    1.0000 </r>
       <r>   -9.2145    1.0000 </r>
       <r>   -9.2145    1.0000 </r>
       <r>   -9.2145    1.0000 </r>
       <r>   -9.2145    1.0000 </r>
       <r>   -9.2116    1.0000 </r>
       <r>   -9.2116    1.0000 </r>
       <r>   -9.2116    1.0000 </r>
       <r>   -9.2115    1.0000 </r>
       <r>   -9.2115    1.0000 </r>
       <r>   -9.2114    1.0000 </r>
       <r>   -9.2114    1.0000 </r>
       <r>   -9.2114    1.0000 </r>
       <r>   -9.2024    1.0000 </r>
       <r>   -9.2024    1.0000 </r>
       <r>   -9.2020    1.0000 </r>
       <r>   -9.2020    1.0000 </r>
       <r>   -9.2018    1.0000 </r>
       <r>   -9.2018    1.0000 </r>
       <r>   -9.2018    1.0000 </r>
       <r>   -9.2018    1.0000 </r>
       <r>   -9.2009    1.0000 </r>
       <r>   -9.2006    1.0000 </r>
       <r>   -9.2005    1.0000 </r>
       <r>   -9.2005    1.0000 </r>
       <r>   -9.2003    1.0000 </r>
       <r>   -9.2003    1.0000 </r>
       <r>   -9.1977    1.0000 </r>
       <r>   -9.1976    1.0000 </r>
       <r>   -9.1975    1.0000 </r>
       <r>   -9.1975    1.0000 </r>
       <r>   -9.1973    1.0000 </r>
       <r>   -9.1972    1.0000 </r>
       <r>   -9.1972    1.0000 </r>
       <r>   -9.1972    1.0000 </r>
       <r>   -9.1904    1.0000 </r>
       <r>   -9.1903    1.0000 </r>
       <r>   -9.1902    1.0000 </r>
       <r>   -9.1901    1.0000 </r>
       <r>   -9.1901    1.0000 </r>
       <r>   -9.1900    1.0000 </r>
       <r>   -9.1900    1.0000 </r>
       <r>   -9.1900    1.0000 </r>
       <r>   -9.1875    1.0000 </r>
       <r>   -9.1875    1.0000 </r>
       <r>   -9.1875    1.0000 </r>
       <r>   -9.1872    1.0000 </r>
       <r>   -9.1790    1.0000 </r>
       <r>   -9.1785    1.0000 </r>
       <r>   -9.1785    1.0000 </r>
       <r>   -9.1784    1.0000 </r>
       <r>   -9.1748    1.0000 </r>
       <r>   -9.1744    1.0000 </r>
       <r>   -9.1743    1.0000 </r>
       <r>   -9.1742    1.0000 </r>
       <r>   -9.1706    1.0000 </r>
       <r>   -9.1699    1.0000 </r>
       <r>   -9.1698    1.0000 </r>
       <r>   -9.1698    1.0000 </r>
       <r>   -9.1696    1.0000 </r>
       <r>   -9.1695    1.0000 </r>
       <r>   -9.1694    1.0000 </r>
       <r>   -9.1694    1.0000 </r>
       <r>   -9.1688    1.0000 </r>
       <r>   -9.1687    1.0000 </r>
       <r>   -9.1686    1.0000 </r>
       <r>   -9.1686    1.0000 </r>
       <r>   -9.1684    1.0000 </r>
       <r>   -9.1684    1.0000 </r>
       <r>   -9.1683    1.0000 </r>
       <r>   -9.1683    1.0000 </r>
       <r>   -9.1673    1.0000 </r>
       <r>   -9.1671    1.0000 </r>
       <r>   -9.1671    1.0000 </r>
       <r>   -9.1671    1.0000 </r>
       <r>   -9.1668    1.0000 </r>
       <r>   -9.1668    1.0000 </r>
       <r>   -9.1668    1.0000 </r>
       <r>   -9.1668    1.0000 </r>
       <r>   -9.1660    1.0000 </r>
       <r>   -9.1660    1.0000 </r>
       <r>   -9.1659    1.0000 </r>
       <r>   -9.1658    1.0000 </r>
       <r>   -9.1656    1.0000 </r>
       <r>   -9.1656    1.0000 </r>
       <r>   -9.1655    1.0000 </r>
       <r>   -9.1653    1.0000 </r>
       <r>   -9.1604    1.0000 </r>
       <r>   -9.1582    1.0000 </r>
       <r>   -9.1582    1.0000 </r>
       <r>   -9.1581    1.0000 </r>
       <r>   -9.1581    1.0000 </r>
       <r>   -9.1580    1.0000 </r>
       <r>   -9.1579    1.0000 </r>
       <r>   -9.1578    1.0000 </r>
       <r>   -9.1578    1.0000 </r>
       <r>   -9.1533    1.0000 </r>
       <r>   -9.1533    1.0000 </r>
       <r>   -9.1528    1.0000 </r>
       <r>   -9.1528    1.0000 </r>
       <r>   -9.1473    1.0000 </r>
       <r>   -9.1472    1.0000 </r>
       <r>   -9.1472    1.0000 </r>
       <r>   -9.1471    1.0000 </r>
       <r>   -9.1468    1.0000 </r>
       <r>   -9.1468    1.0000 </r>
       <r>   -9.1468    1.0000 </r>
       <r>   -9.1468    1.0000 </r>
       <r>   -9.1412    1.0000 </r>
       <r>   -9.1412    1.0000 </r>
       <r>   -9.1412    1.0000 </r>
       <r>   -9.1411    1.0000 </r>
       <r>   -9.1411    1.0000 </r>
       <r>   -9.1411    1.0000 </r>
       <r>   -9.1410    1.0000 </r>
       <r>   -9.1410    1.0000 </r>
       <r>   -9.1390    1.0000 </r>
       <r>   -9.1388    1.0000 </r>
       <r>   -9.1385    1.0000 </r>
       <r>   -9.1384    1.0000 </r>
       <r>   -9.1384    1.0000 </r>
       <r>   -9.1383    1.0000 </r>
       <r>   -9.1383    1.0000 </r>
       <r>   -9.1382    1.0000 </r>
       <r>   -9.1341    1.0000 </r>
       <r>   -9.1341    1.0000 </r>
       <r>   -9.1341    1.0000 </r>
       <r>   -9.1340    1.0000 </r>
       <r>   -9.1339    1.0000 </r>
       <r>   -9.1338    1.0000 </r>
       <r>   -9.1338    1.0000 </r>
       <r>   -9.1337    1.0000 </r>
       <r>   -9.1259    1.0000 </r>
       <r>   -9.1258    1.0000 </r>
       <r>   -9.1253    1.0000 </r>
       <r>   -9.1252    1.0000 </r>
       <r>   -9.1252    1.0000 </r>
       <r>   -9.1252    1.0000 </r>
       <r>   -9.1252    1.0000 </r>
       <r>   -9.1251    1.0000 </r>
       <r>   -9.1026    1.0000 </r>
       <r>   -9.1025    1.0000 </r>
       <r>   -9.1025    1.0000 </r>
       <r>   -9.1023    1.0000 </r>
       <r>   -9.1023    1.0000 </r>
       <r>   -9.1022    1.0000 </r>
       <r>   -9.1022    1.0000 </r>
       <r>   -9.1022    1.0000 </r>
       <r>   -9.0977    1.0000 </r>
       <r>   -9.0976    1.0000 </r>
       <r>   -9.0975    1.0000 </r>
       <r>   -9.0975    1.0000 </r>
       <r>   -9.0974    1.0000 </r>
       <r>   -9.0971    1.0000 </r>
       <r>   -9.0971    1.0000 </r>
       <r>   -9.0969    1.0000 </r>
       <r>   -9.0962    1.0000 </r>
       <r>   -9.0961    1.0000 </r>
       <r>   -9.0960    1.0000 </r>
       <r>   -9.0959    1.0000 </r>
       <r>   -9.0874    1.0000 </r>
       <r>   -9.0865    1.0000 </r>
       <r>   -9.0865    1.0000 </r>
       <r>   -9.0864    1.0000 </r>
       <r>   -9.0863    1.0000 </r>
       <r>   -9.0863    1.0000 </r>
       <r>   -9.0862    1.0000 </r>
       <r>   -9.0862    1.0000 </r>
       <r>   -9.0763    1.0000 </r>
       <r>   -9.0763    1.0000 </r>
       <r>   -9.0763    1.0000 </r>
       <r>   -9.0762    1.0000 </r>
       <r>   -9.0762    1.0000 </r>
       <r>   -9.0761    1.0000 </r>
       <r>   -9.0761    1.0000 </r>
       <r>   -9.0761    1.0000 </r>
       <r>   -9.0736    1.0000 </r>
       <r>   -9.0734    1.0000 </r>
       <r>   -9.0733    1.0000 </r>
       <r>   -9.0732    1.0000 </r>
       <r>   -9.0726    1.0000 </r>
       <r>   -9.0724    1.0000 </r>
       <r>   -9.0724    1.0000 </r>
       <r>   -9.0724    1.0000 </r>
       <r>   -9.0693    1.0000 </r>
       <r>   -9.0692    1.0000 </r>
       <r>   -9.0692    1.0000 </r>
       <r>   -9.0692    1.0000 </r>
       <r>   -9.0539    1.0000 </r>
       <r>   -9.0539    1.0000 </r>
       <r>   -9.0538    1.0000 </r>
       <r>   -9.0537    1.0000 </r>
       <r>   -9.0503    1.0000 </r>
       <r>   -9.0502    1.0000 </r>
       <r>   -9.0502    1.0000 </r>
       <r>   -9.0502    1.0000 </r>
       <r>   -9.0477    1.0000 </r>
       <r>   -9.0477    1.0000 </r>
       <r>   -9.0476    1.0000 </r>
       <r>   -9.0476    1.0000 </r>
       <r>   -9.0476    1.0000 </r>
       <r>   -9.0475    1.0000 </r>
       <r>   -9.0475    1.0000 </r>
       <r>   -9.0475    1.0000 </r>
       <r>   -9.0473    1.0000 </r>
       <r>   -9.0472    1.0000 </r>
       <r>   -9.0471    1.0000 </r>
       <r>   -9.0471    1.0000 </r>
       <r>   -9.0453    1.0000 </r>
       <r>   -9.0452    1.0000 </r>
       <r>   -9.0451    1.0000 </r>
       <r>   -9.0451    1.0000 </r>
       <r>   -9.0448    1.0000 </r>
       <r>   -9.0447    1.0000 </r>
       <r>   -9.0447    1.0000 </r>
       <r>   -9.0447    1.0000 </r>
       <r>   -9.0434    1.0000 </r>
       <r>   -9.0432    1.0000 </r>
       <r>   -9.0432    1.0000 </r>
       <r>   -9.0428    1.0000 </r>
       <r>   -9.0427    1.0000 </r>
       <r>   -9.0427    1.0000 </r>
       <r>   -9.0427    1.0000 </r>
       <r>   -9.0427    1.0000 </r>
       <r>   -9.0423    1.0000 </r>
       <r>   -9.0423    1.0000 </r>
       <r>   -9.0423    1.0000 </r>
       <r>   -9.0422    1.0000 </r>
       <r>   -9.0421    1.0000 </r>
       <r>   -9.0420    1.0000 </r>
       <r>   -9.0420    1.0000 </r>
       <r>   -9.0420    1.0000 </r>
       <r>   -9.0367    1.0000 </r>
       <r>   -9.0364    1.0000 </r>
       <r>   -9.0363    1.0000 </r>
       <r>   -9.0362    1.0000 </r>
       <r>   -9.0361    1.0000 </r>
       <r>   -9.0361    1.0000 </r>
       <r>   -9.0361    1.0000 </r>
       <r>   -9.0360    1.0000 </r>
       <r>   -9.0293    1.0000 </r>
       <r>   -9.0292    1.0000 </r>
       <r>   -9.0292    1.0000 </r>
       <r>   -9.0291    1.0000 </r>
       <r>   -9.0290    1.0000 </r>
       <r>   -9.0290    1.0000 </r>
       <r>   -9.0290    1.0000 </r>
       <r>   -9.0290    1.0000 </r>
       <r>   -9.0255    1.0000 </r>
       <r>   -9.0250    1.0000 </r>
       <r>   -9.0250    1.0000 </r>
       <r>   -9.0249    1.0000 </r>
       <r>   -9.0163    1.0000 </r>
       <r>   -9.0163    1.0000 </r>
       <r>   -9.0159    1.0000 </r>
       <r>   -9.0159    1.0000 </r>
       <r>   -9.0152    1.0000 </r>
       <r>   -9.0151    1.0000 </r>
       <r>   -9.0151    1.0000 </r>
       <r>   -9.0150    1.0000 </r>
       <r>   -9.0149    1.0000 </r>
       <r>   -9.0149    1.0000 </r>
       <r>   -9.0148    1.0000 </r>
       <r>   -9.0148    1.0000 </r>
       <r>   -8.9968    1.0000 </r>
       <r>   -8.9956    1.0000 </r>
       <r>   -8.9953    1.0000 </r>
       <r>   -8.9952    1.0000 </r>
       <r>   -8.9949    1.0000 </r>
       <r>   -8.9947    1.0000 </r>
       <r>   -8.9946    1.0000 </r>
       <r>   -8.9946    1.0000 </r>
       <r>   -8.9946    1.0000 </r>
       <r>   -8.9813    1.0000 </r>
       <r>   -8.9813    1.0000 </r>
       <r>   -8.9812    1.0000 </r>
       <r>   -8.9812    1.0000 </r>
       <r>   -8.9811    1.0000 </r>
       <r>   -8.9811    1.0000 </r>
       <r>   -8.9810    1.0000 </r>
       <r>   -8.9810    1.0000 </r>
       <r>   -8.9793    1.0000 </r>
       <r>   -8.9792    1.0000 </r>
       <r>   -8.9791    1.0000 </r>
       <r>   -8.9790    1.0000 </r>
       <r>   -8.9790    1.0000 </r>
       <r>   -8.9790    1.0000 </r>
       <r>   -8.9789    1.0000 </r>
       <r>   -8.9789    1.0000 </r>
       <r>   -8.9739    1.0000 </r>
       <r>   -8.9738    1.0000 </r>
       <r>   -8.9738    1.0000 </r>
       <r>   -8.9734    1.0000 </r>
       <r>   -8.9734    1.0000 </r>
       <r>   -8.9733    1.0000 </r>
       <r>   -8.9733    1.0000 </r>
       <r>   -8.9733    1.0000 </r>
       <r>   -8.9599    1.0000 </r>
       <r>   -8.9598    1.0000 </r>
       <r>   -8.9598    1.0000 </r>
       <r>   -8.9597    1.0000 </r>
       <r>   -8.9597    1.0000 </r>
       <r>   -8.9596    1.0000 </r>
       <r>   -8.9596    1.0000 </r>
       <r>   -8.9596    1.0000 </r>
       <r>   -8.9511    1.0000 </r>
       <r>   -8.9507    1.0000 </r>
       <r>   -8.9507    1.0000 </r>
       <r>   -8.9506    1.0000 </r>
       <r>   -8.9421    1.0000 </r>
       <r>   -8.9420    1.0000 </r>
       <r>   -8.9420    1.0000 </r>
       <r>   -8.9420    1.0000 </r>
       <r>   -8.9419    1.0000 </r>
       <r>   -8.9419    1.0000 </r>
       <r>   -8.9418    1.0000 </r>
       <r>   -8.9418    1.0000 </r>
       <r>   -8.9373    1.0000 </r>
       <r>   -8.9373    1.0000 </r>
       <r>   -8.9372    1.0000 </r>
       <r>   -8.9371    1.0000 </r>
       <r>   -8.9315    1.0000 </r>
       <r>   -8.9303    1.0000 </r>
       <r>   -8.9303    1.0000 </r>
       <r>   -8.9303    1.0000 </r>
       <r>   -8.9291    1.0000 </r>
       <r>   -8.9289    1.0000 </r>
       <r>   -8.9289    1.0000 </r>
       <r>   -8.9288    1.0000 </r>
       <r>   -8.9232    1.0000 </r>
       <r>   -8.9228    1.0000 </r>
       <r>   -8.9227    1.0000 </r>
       <r>   -8.9225    1.0000 </r>
       <r>   -8.9174    1.0000 </r>
       <r>   -8.9173    1.0000 </r>
       <r>   -8.9173    1.0000 </r>
       <r>   -8.9173    1.0000 </r>
       <r>   -8.9026    1.0000 </r>
       <r>   -8.9025    1.0000 </r>
       <r>   -8.9025    1.0000 </r>
       <r>   -8.9025    1.0000 </r>
       <r>   -8.8940    1.0000 </r>
       <r>   -8.8938    1.0000 </r>
       <r>   -8.8938    1.0000 </r>
       <r>   -8.8937    1.0000 </r>
       <r>   -8.8935    1.0000 </r>
       <r>   -8.8934    1.0000 </r>
       <r>   -8.8934    1.0000 </r>
       <r>   -8.8934    1.0000 </r>
       <r>   -8.8799    1.0000 </r>
       <r>   -8.8797    1.0000 </r>
       <r>   -8.8793    1.0000 </r>
       <r>   -8.8792    1.0000 </r>
       <r>   -8.8791    1.0000 </r>
       <r>   -8.8791    1.0000 </r>
       <r>   -8.8791    1.0000 </r>
       <r>   -8.8791    1.0000 </r>
       <r>   -8.8748    1.0000 </r>
       <r>   -8.8747    1.0000 </r>
       <r>   -8.8747    1.0000 </r>
       <r>   -8.8746    1.0000 </r>
       <r>   -8.8709    1.0000 </r>
       <r>   -8.8685    1.0000 </r>
       <r>   -8.8685    1.0000 </r>
       <r>   -8.8685    1.0000 </r>
       <r>   -8.8684    1.0000 </r>
       <r>   -8.8650    1.0000 </r>
       <r>   -8.8642    1.0000 </r>
       <r>   -8.8641    1.0000 </r>
       <r>   -8.8638    1.0000 </r>
       <r>   -8.8462    1.0000 </r>
       <r>   -8.8458    1.0000 </r>
       <r>   -8.8457    1.0000 </r>
       <r>   -8.8456    1.0000 </r>
       <r>   -8.8456    1.0000 </r>
       <r>   -8.8455    1.0000 </r>
       <r>   -8.8455    1.0000 </r>
       <r>   -8.8455    1.0000 </r>
       <r>   -8.8447    1.0000 </r>
       <r>   -8.8431    1.0000 </r>
       <r>   -8.8431    1.0000 </r>
       <r>   -8.8431    1.0000 </r>
       <r>   -8.8431    1.0000 </r>
       <r>   -8.8410    1.0000 </r>
       <r>   -8.8410    1.0000 </r>
       <r>   -8.8410    1.0000 </r>
       <r>   -8.8408    1.0000 </r>
       <r>   -8.8408    1.0000 </r>
       <r>   -8.8407    1.0000 </r>
       <r>   -8.8407    1.0000 </r>
       <r>   -8.8406    1.0000 </r>
       <r>   -8.8399    1.0000 </r>
       <r>   -8.8399    1.0000 </r>
       <r>   -8.8399    1.0000 </r>
       <r>   -8.8398    1.0000 </r>
       <r>   -8.8395    1.0000 </r>
       <r>   -8.8395    1.0000 </r>
       <r>   -8.8395    1.0000 </r>
       <r>   -8.8395    1.0000 </r>
       <r>   -8.8334    1.0000 </r>
       <r>   -8.8333    1.0000 </r>
       <r>   -8.8333    1.0000 </r>
       <r>   -8.8331    1.0000 </r>
       <r>   -8.8329    1.0000 </r>
       <r>   -8.8328    1.0000 </r>
       <r>   -8.8328    1.0000 </r>
       <r>   -8.8328    1.0000 </r>
       <r>   -8.8231    1.0000 </r>
       <r>   -8.8228    1.0000 </r>
       <r>   -8.8228    1.0000 </r>
       <r>   -8.8227    1.0000 </r>
       <r>   -8.8219    1.0000 </r>
       <r>   -8.8219    1.0000 </r>
       <r>   -8.8219    1.0000 </r>
       <r>   -8.8218    1.0000 </r>
       <r>   -8.8216    1.0000 </r>
       <r>   -8.8216    1.0000 </r>
       <r>   -8.8216    1.0000 </r>
       <r>   -8.8215    1.0000 </r>
       <r>   -8.8083    1.0000 </r>
       <r>   -8.8079    1.0000 </r>
       <r>   -8.8079    1.0000 </r>
       <r>   -8.8078    1.0000 </r>
       <r>   -8.8078    1.0000 </r>
       <r>   -8.8077    1.0000 </r>
       <r>   -8.8076    1.0000 </r>
       <r>   -8.8076    1.0000 </r>
       <r>   -8.8059    1.0000 </r>
       <r>   -8.8058    1.0000 </r>
       <r>   -8.8055    1.0000 </r>
       <r>   -8.8054    1.0000 </r>
       <r>   -8.8051    1.0000 </r>
       <r>   -8.8051    1.0000 </r>
       <r>   -8.8051    1.0000 </r>
       <r>   -8.8050    1.0000 </r>
       <r>   -8.8045    1.0000 </r>
       <r>   -8.8044    1.0000 </r>
       <r>   -8.8043    1.0000 </r>
       <r>   -8.8042    1.0000 </r>
       <r>   -8.8038    1.0000 </r>
       <r>   -8.8036    1.0000 </r>
       <r>   -8.8035    1.0000 </r>
       <r>   -8.8035    1.0000 </r>
       <r>   -8.7957    1.0000 </r>
       <r>   -8.7955    1.0000 </r>
       <r>   -8.7954    1.0000 </r>
       <r>   -8.7953    1.0000 </r>
       <r>   -8.7950    1.0000 </r>
       <r>   -8.7950    1.0000 </r>
       <r>   -8.7950    1.0000 </r>
       <r>   -8.7950    1.0000 </r>
       <r>   -8.7940    1.0000 </r>
       <r>   -8.7939    1.0000 </r>
       <r>   -8.7937    1.0000 </r>
       <r>   -8.7937    1.0000 </r>
       <r>   -8.7928    1.0000 </r>
       <r>   -8.7926    1.0000 </r>
       <r>   -8.7926    1.0000 </r>
       <r>   -8.7925    1.0000 </r>
       <r>   -8.7924    1.0000 </r>
       <r>   -8.7924    1.0000 </r>
       <r>   -8.7924    1.0000 </r>
       <r>   -8.7924    1.0000 </r>
       <r>   -8.7884    1.0000 </r>
       <r>   -8.7882    1.0000 </r>
       <r>   -8.7882    1.0000 </r>
       <r>   -8.7882    1.0000 </r>
       <r>   -8.7865    1.0000 </r>
       <r>   -8.7864    1.0000 </r>
       <r>   -8.7864    1.0000 </r>
       <r>   -8.7863    1.0000 </r>
       <r>   -8.7863    1.0000 </r>
       <r>   -8.7862    1.0000 </r>
       <r>   -8.7862    1.0000 </r>
       <r>   -8.7862    1.0000 </r>
       <r>   -8.7761    1.0000 </r>
       <r>   -8.7760    1.0000 </r>
       <r>   -8.7760    1.0000 </r>
       <r>   -8.7758    1.0000 </r>
       <r>   -8.7737    1.0000 </r>
       <r>   -8.7732    1.0000 </r>
       <r>   -8.7732    1.0000 </r>
       <r>   -8.7730    1.0000 </r>
       <r>   -8.7552    1.0000 </r>
       <r>   -8.7551    1.0000 </r>
       <r>   -8.7551    1.0000 </r>
       <r>   -8.7550    1.0000 </r>
       <r>   -8.7550    1.0000 </r>
       <r>   -8.7549    1.0000 </r>
       <r>   -8.7549    1.0000 </r>
       <r>   -8.7549    1.0000 </r>
       <r>   -8.7521    1.0000 </r>
       <r>   -8.7520    1.0000 </r>
       <r>   -8.7514    1.0000 </r>
       <r>   -8.7514    1.0000 </r>
       <r>   -8.7429    1.0000 </r>
       <r>   -8.7398    1.0000 </r>
       <r>   -8.7392    1.0000 </r>
       <r>   -8.7391    1.0000 </r>
       <r>   -8.7390    1.0000 </r>
       <r>   -8.7382    1.0000 </r>
       <r>   -8.7381    1.0000 </r>
       <r>   -8.7380    1.0000 </r>
       <r>   -8.7358    1.0000 </r>
       <r>   -8.7358    1.0000 </r>
       <r>   -8.7358    1.0000 </r>
       <r>   -8.7358    1.0000 </r>
       <r>   -8.7356    1.0000 </r>
       <r>   -8.7356    1.0000 </r>
       <r>   -8.7356    1.0000 </r>
       <r>   -8.7356    1.0000 </r>
       <r>   -8.7321    1.0000 </r>
       <r>   -8.7318    1.0000 </r>
       <r>   -8.7317    1.0000 </r>
       <r>   -8.7316    1.0000 </r>
       <r>   -8.7305    1.0000 </r>
       <r>   -8.7305    1.0000 </r>
       <r>   -8.7304    1.0000 </r>
       <r>   -8.7304    1.0000 </r>
       <r>   -8.7254    1.0000 </r>
       <r>   -8.7242    1.0000 </r>
       <r>   -8.7240    1.0000 </r>
       <r>   -8.7239    1.0000 </r>
       <r>   -8.7192    1.0000 </r>
       <r>   -8.7185    1.0000 </r>
       <r>   -8.7184    1.0000 </r>
       <r>   -8.7183    1.0000 </r>
       <r>   -8.7182    1.0000 </r>
       <r>   -8.7182    1.0000 </r>
       <r>   -8.7181    1.0000 </r>
       <r>   -8.7181    1.0000 </r>
       <r>   -8.7180    1.0000 </r>
       <r>   -8.7179    1.0000 </r>
       <r>   -8.7179    1.0000 </r>
       <r>   -8.7179    1.0000 </r>
       <r>   -8.7178    1.0000 </r>
       <r>   -8.6819    1.0000 </r>
       <r>   -8.6813    1.0000 </r>
       <r>   -8.6812    1.0000 </r>
       <r>   -8.6812    1.0000 </r>
       <r>   -8.6798    1.0000 </r>
       <r>   -8.6787    1.0000 </r>
       <r>   -8.6785    1.0000 </r>
       <r>   -8.6785    1.0000 </r>
       <r>   -8.6785    1.0000 </r>
       <r>   -8.6784    1.0000 </r>
       <r>   -8.6784    1.0000 </r>
       <r>   -8.6784    1.0000 </r>
       <r>   -8.6774    1.0000 </r>
       <r>   -8.6772    1.0000 </r>
       <r>   -8.6772    1.0000 </r>
       <r>   -8.6770    1.0000 </r>
       <r>   -8.6767    1.0000 </r>
       <r>   -8.6767    1.0000 </r>
       <r>   -8.6767    1.0000 </r>
       <r>   -8.6766    1.0000 </r>
       <r>   -8.6739    1.0000 </r>
       <r>   -8.6697    1.0000 </r>
       <r>   -8.6683    1.0000 </r>
       <r>   -8.6680    1.0000 </r>
       <r>   -8.6678    1.0000 </r>
       <r>   -8.6677    1.0000 </r>
       <r>   -8.6676    1.0000 </r>
       <r>   -8.6676    1.0000 </r>
       <r>   -8.6551    1.0000 </r>
       <r>   -8.6533    1.0000 </r>
       <r>   -8.6526    1.0000 </r>
       <r>   -8.6525    1.0000 </r>
       <r>   -8.6524    1.0000 </r>
       <r>   -8.6522    1.0000 </r>
       <r>   -8.6521    1.0000 </r>
       <r>   -8.6518    1.0000 </r>
       <r>   -8.6517    1.0000 </r>
       <r>   -8.6516    1.0000 </r>
       <r>   -8.6515    1.0000 </r>
       <r>   -8.6515    1.0000 </r>
       <r>   -8.6469    1.0000 </r>
       <r>   -8.6404    1.0000 </r>
       <r>   -8.6402    1.0000 </r>
       <r>   -8.6399    1.0000 </r>
       <r>   -8.6381    1.0000 </r>
       <r>   -8.6357    1.0000 </r>
       <r>   -8.6356    1.0000 </r>
       <r>   -8.6353    1.0000 </r>
       <r>   -8.6326    1.0000 </r>
       <r>   -8.6316    1.0000 </r>
       <r>   -8.6314    1.0000 </r>
       <r>   -8.6313    1.0000 </r>
       <r>   -8.6307    1.0000 </r>
       <r>   -8.6281    1.0000 </r>
       <r>   -8.6277    1.0000 </r>
       <r>   -8.6274    1.0000 </r>
       <r>   -8.6240    1.0000 </r>
       <r>   -8.6224    1.0000 </r>
       <r>   -8.6216    1.0000 </r>
       <r>   -8.6215    1.0000 </r>
       <r>   -8.6214    1.0000 </r>
       <r>   -8.6213    1.0000 </r>
       <r>   -8.6213    1.0000 </r>
       <r>   -8.6212    1.0000 </r>
       <r>   -8.6207    1.0000 </r>
       <r>   -8.6184    1.0000 </r>
       <r>   -8.6183    1.0000 </r>
       <r>   -8.6181    1.0000 </r>
       <r>   -8.6143    1.0000 </r>
       <r>   -8.6130    1.0000 </r>
       <r>   -8.6126    1.0000 </r>
       <r>   -8.6126    1.0000 </r>
       <r>   -8.6117    1.0000 </r>
       <r>   -8.6111    1.0000 </r>
       <r>   -8.6110    1.0000 </r>
       <r>   -8.6110    1.0000 </r>
       <r>   -8.6109    1.0000 </r>
       <r>   -8.6108    1.0000 </r>
       <r>   -8.6107    1.0000 </r>
       <r>   -8.6107    1.0000 </r>
       <r>   -8.6102    1.0000 </r>
       <r>   -8.6070    1.0000 </r>
       <r>   -8.6070    1.0000 </r>
       <r>   -8.6068    1.0000 </r>
       <r>   -8.6067    1.0000 </r>
       <r>   -8.6066    1.0000 </r>
       <r>   -8.6066    1.0000 </r>
       <r>   -8.6065    1.0000 </r>
       <r>   -8.6065    1.0000 </r>
       <r>   -8.6056    1.0000 </r>
       <r>   -8.6055    1.0000 </r>
       <r>   -8.6054    1.0000 </r>
       <r>   -8.6035    1.0000 </r>
       <r>   -8.6031    1.0000 </r>
       <r>   -8.6022    1.0000 </r>
       <r>   -8.6022    1.0000 </r>
       <r>   -8.6019    1.0000 </r>
       <r>   -8.6017    1.0000 </r>
       <r>   -8.6017    1.0000 </r>
       <r>   -8.6015    1.0000 </r>
       <r>   -8.6011    1.0000 </r>
       <r>   -8.6011    1.0000 </r>
       <r>   -8.6010    1.0000 </r>
       <r>   -8.6010    1.0000 </r>
       <r>   -8.5896    1.0000 </r>
       <r>   -8.5845    1.0000 </r>
       <r>   -8.5844    1.0000 </r>
       <r>   -8.5844    1.0000 </r>
       <r>   -8.5843    1.0000 </r>
       <r>   -8.5843    1.0000 </r>
       <r>   -8.5842    1.0000 </r>
       <r>   -8.5842    1.0000 </r>
       <r>   -8.5841    1.0000 </r>
       <r>   -8.5831    1.0000 </r>
       <r>   -8.5822    1.0000 </r>
       <r>   -8.5820    1.0000 </r>
       <r>   -8.5812    1.0000 </r>
       <r>   -8.5799    1.0000 </r>
       <r>   -8.5795    1.0000 </r>
       <r>   -8.5792    1.0000 </r>
       <r>   -8.5784    1.0000 </r>
       <r>   -8.5775    1.0000 </r>
       <r>   -8.5774    1.0000 </r>
       <r>   -8.5771    1.0000 </r>
       <r>   -8.5766    1.0000 </r>
       <r>   -8.5765    1.0000 </r>
       <r>   -8.5765    1.0000 </r>
       <r>   -8.5764    1.0000 </r>
       <r>   -8.5714    1.0000 </r>
       <r>   -8.5701    1.0000 </r>
       <r>   -8.5700    1.0000 </r>
       <r>   -8.5699    1.0000 </r>
       <r>   -8.5697    1.0000 </r>
       <r>   -8.5693    1.0000 </r>
       <r>   -8.5693    1.0000 </r>
       <r>   -8.5689    1.0000 </r>
       <r>   -8.5687    1.0000 </r>
       <r>   -8.5686    1.0000 </r>
       <r>   -8.5686    1.0000 </r>
       <r>   -8.5686    1.0000 </r>
       <r>   -8.5673    1.0000 </r>
       <r>   -8.5591    1.0000 </r>
       <r>   -8.5587    1.0000 </r>
       <r>   -8.5586    1.0000 </r>
       <r>   -8.5586    1.0000 </r>
       <r>   -8.5585    1.0000 </r>
       <r>   -8.5584    1.0000 </r>
       <r>   -8.5584    1.0000 </r>
       <r>   -8.5582    1.0000 </r>
       <r>   -8.5551    1.0000 </r>
       <r>   -8.5549    1.0000 </r>
       <r>   -8.5542    1.0000 </r>
       <r>   -8.5540    1.0000 </r>
       <r>   -8.5540    1.0000 </r>
       <r>   -8.5540    1.0000 </r>
       <r>   -8.5539    1.0000 </r>
       <r>   -8.5539    1.0000 </r>
       <r>   -8.5537    1.0000 </r>
       <r>   -8.5530    1.0000 </r>
       <r>   -8.5529    1.0000 </r>
       <r>   -8.5527    1.0000 </r>
       <r>   -8.5524    1.0000 </r>
       <r>   -8.5524    1.0000 </r>
       <r>   -8.5522    1.0000 </r>
       <r>   -8.5521    1.0000 </r>
       <r>   -8.5491    1.0000 </r>
       <r>   -8.5480    1.0000 </r>
       <r>   -8.5474    1.0000 </r>
       <r>   -8.5471    1.0000 </r>
       <r>   -8.5470    1.0000 </r>
       <r>   -8.5468    1.0000 </r>
       <r>   -8.5468    1.0000 </r>
       <r>   -8.5467    1.0000 </r>
       <r>   -8.5454    1.0000 </r>
       <r>   -8.5453    1.0000 </r>
       <r>   -8.5453    1.0000 </r>
       <r>   -8.5452    1.0000 </r>
       <r>   -8.5435    1.0000 </r>
       <r>   -8.5430    1.0000 </r>
       <r>   -8.5427    1.0000 </r>
       <r>   -8.5426    1.0000 </r>
       <r>   -8.5380    1.0000 </r>
       <r>   -8.5244    1.0000 </r>
       <r>   -8.5239    1.0000 </r>
       <r>   -8.5239    1.0000 </r>
       <r>   -8.5238    1.0000 </r>
       <r>   -8.5238    1.0000 </r>
       <r>   -8.5238    1.0000 </r>
       <r>   -8.5237    1.0000 </r>
       <r>   -8.5235    1.0000 </r>
       <r>   -8.5220    1.0000 </r>
       <r>   -8.5215    1.0000 </r>
       <r>   -8.5214    1.0000 </r>
       <r>   -8.5207    1.0000 </r>
       <r>   -8.5167    1.0000 </r>
       <r>   -8.5166    1.0000 </r>
       <r>   -8.5165    1.0000 </r>
       <r>   -8.5152    1.0000 </r>
       <r>   -8.5101    1.0000 </r>
       <r>   -8.5095    1.0000 </r>
       <r>   -8.5094    1.0000 </r>
       <r>   -8.5093    1.0000 </r>
       <r>   -8.5092    1.0000 </r>
       <r>   -8.5092    1.0000 </r>
       <r>   -8.5091    1.0000 </r>
       <r>   -8.5091    1.0000 </r>
       <r>   -8.5035    1.0000 </r>
       <r>   -8.5031    1.0000 </r>
       <r>   -8.5016    1.0000 </r>
       <r>   -8.5012    1.0000 </r>
       <r>   -8.5011    1.0000 </r>
       <r>   -8.5011    1.0000 </r>
       <r>   -8.5010    1.0000 </r>
       <r>   -8.5010    1.0000 </r>
       <r>   -8.5009    1.0000 </r>
       <r>   -8.5008    1.0000 </r>
       <r>   -8.4970    1.0000 </r>
       <r>   -8.4962    1.0000 </r>
       <r>   -8.4962    1.0000 </r>
       <r>   -8.4961    1.0000 </r>
       <r>   -8.4961    1.0000 </r>
       <r>   -8.4961    1.0000 </r>
       <r>   -8.4960    1.0000 </r>
       <r>   -8.4958    1.0000 </r>
       <r>   -8.4918    1.0000 </r>
       <r>   -8.4917    1.0000 </r>
       <r>   -8.4911    1.0000 </r>
       <r>   -8.4910    1.0000 </r>
       <r>   -8.4834    1.0000 </r>
       <r>   -8.4834    1.0000 </r>
       <r>   -8.4834    1.0000 </r>
       <r>   -8.4834    1.0000 </r>
       <r>   -8.4819    1.0000 </r>
       <r>   -8.4818    1.0000 </r>
       <r>   -8.4818    1.0000 </r>
       <r>   -8.4818    1.0000 </r>
       <r>   -8.4814    1.0000 </r>
       <r>   -8.4786    1.0000 </r>
       <r>   -8.4784    1.0000 </r>
       <r>   -8.4781    1.0000 </r>
       <r>   -8.4781    1.0000 </r>
       <r>   -8.4780    1.0000 </r>
       <r>   -8.4779    1.0000 </r>
       <r>   -8.4779    1.0000 </r>
       <r>   -8.4776    1.0000 </r>
       <r>   -8.4765    1.0000 </r>
       <r>   -8.4764    1.0000 </r>
       <r>   -8.4761    1.0000 </r>
       <r>   -8.4758    1.0000 </r>
       <r>   -8.4758    1.0000 </r>
       <r>   -8.4757    1.0000 </r>
       <r>   -8.4757    1.0000 </r>
       <r>   -8.4755    1.0000 </r>
       <r>   -8.4723    1.0000 </r>
       <r>   -8.4718    1.0000 </r>
       <r>   -8.4716    1.0000 </r>
       <r>   -8.4715    1.0000 </r>
       <r>   -8.4699    1.0000 </r>
       <r>   -8.4664    1.0000 </r>
       <r>   -8.4663    1.0000 </r>
       <r>   -8.4662    1.0000 </r>
       <r>   -8.4610    1.0000 </r>
       <r>   -8.4608    1.0000 </r>
       <r>   -8.4607    1.0000 </r>
       <r>   -8.4607    1.0000 </r>
       <r>   -8.4577    1.0000 </r>
       <r>   -8.4541    1.0000 </r>
       <r>   -8.4535    1.0000 </r>
       <r>   -8.4534    1.0000 </r>
       <r>   -8.4532    1.0000 </r>
       <r>   -8.4521    1.0000 </r>
       <r>   -8.4519    1.0000 </r>
       <r>   -8.4517    1.0000 </r>
       <r>   -8.4517    1.0000 </r>
       <r>   -8.4495    1.0000 </r>
       <r>   -8.4494    1.0000 </r>
       <r>   -8.4494    1.0000 </r>
       <r>   -8.4494    1.0000 </r>
       <r>   -8.4494    1.0000 </r>
       <r>   -8.4493    1.0000 </r>
       <r>   -8.4493    1.0000 </r>
       <r>   -8.4492    1.0000 </r>
       <r>   -8.4361    1.0000 </r>
       <r>   -8.4360    1.0000 </r>
       <r>   -8.4359    1.0000 </r>
       <r>   -8.4358    1.0000 </r>
       <r>   -8.4357    1.0000 </r>
       <r>   -8.4357    1.0000 </r>
       <r>   -8.4356    1.0000 </r>
       <r>   -8.4356    1.0000 </r>
       <r>   -8.4340    1.0000 </r>
       <r>   -8.4326    1.0000 </r>
       <r>   -8.4325    1.0000 </r>
       <r>   -8.4325    1.0000 </r>
       <r>   -8.4283    1.0000 </r>
       <r>   -8.4282    1.0000 </r>
       <r>   -8.4281    1.0000 </r>
       <r>   -8.4280    1.0000 </r>
       <r>   -8.4150    1.0000 </r>
       <r>   -8.4148    1.0000 </r>
       <r>   -8.4147    1.0000 </r>
       <r>   -8.4147    1.0000 </r>
       <r>   -8.4135    1.0000 </r>
       <r>   -8.4128    1.0000 </r>
       <r>   -8.4119    1.0000 </r>
       <r>   -8.4118    1.0000 </r>
       <r>   -8.4116    1.0000 </r>
       <r>   -8.4115    1.0000 </r>
       <r>   -8.4115    1.0000 </r>
       <r>   -8.4115    1.0000 </r>
       <r>   -8.4114    1.0000 </r>
       <r>   -8.4113    1.0000 </r>
       <r>   -8.4113    1.0000 </r>
       <r>   -8.4111    1.0000 </r>
       <r>   -8.4111    1.0000 </r>
       <r>   -8.4111    1.0000 </r>
       <r>   -8.4110    1.0000 </r>
       <r>   -8.4100    1.0000 </r>
       <r>   -8.3968    1.0000 </r>
       <r>   -8.3963    1.0000 </r>
       <r>   -8.3963    1.0000 </r>
       <r>   -8.3962    1.0000 </r>
       <r>   -8.3955    1.0000 </r>
       <r>   -8.3948    1.0000 </r>
       <r>   -8.3944    1.0000 </r>
       <r>   -8.3943    1.0000 </r>
       <r>   -8.3903    1.0000 </r>
       <r>   -8.3898    1.0000 </r>
       <r>   -8.3895    1.0000 </r>
       <r>   -8.3894    1.0000 </r>
       <r>   -8.3892    1.0000 </r>
       <r>   -8.3892    1.0000 </r>
       <r>   -8.3891    1.0000 </r>
       <r>   -8.3881    1.0000 </r>
       <r>   -8.3858    1.0000 </r>
       <r>   -8.3842    1.0000 </r>
       <r>   -8.3839    1.0000 </r>
       <r>   -8.3837    1.0000 </r>
       <r>   -8.3837    1.0000 </r>
       <r>   -8.3835    1.0000 </r>
       <r>   -8.3833    1.0000 </r>
       <r>   -8.3829    1.0000 </r>
       <r>   -8.3685    1.0000 </r>
       <r>   -8.3682    1.0000 </r>
       <r>   -8.3681    1.0000 </r>
       <r>   -8.3681    1.0000 </r>
       <r>   -8.3666    1.0000 </r>
       <r>   -8.3654    1.0000 </r>
       <r>   -8.3653    1.0000 </r>
       <r>   -8.3652    1.0000 </r>
       <r>   -8.3652    1.0000 </r>
       <r>   -8.3651    1.0000 </r>
       <r>   -8.3651    1.0000 </r>
       <r>   -8.3650    1.0000 </r>
       <r>   -8.3624    1.0000 </r>
       <r>   -8.3605    1.0000 </r>
       <r>   -8.3604    1.0000 </r>
       <r>   -8.3602    1.0000 </r>
       <r>   -8.3601    1.0000 </r>
       <r>   -8.3601    1.0000 </r>
       <r>   -8.3600    1.0000 </r>
       <r>   -8.3600    1.0000 </r>
       <r>   -8.3580    1.0000 </r>
       <r>   -8.3556    1.0000 </r>
       <r>   -8.3556    1.0000 </r>
       <r>   -8.3555    1.0000 </r>
       <r>   -8.3553    1.0000 </r>
       <r>   -8.3545    1.0000 </r>
       <r>   -8.3543    1.0000 </r>
       <r>   -8.3543    1.0000 </r>
       <r>   -8.3542    1.0000 </r>
       <r>   -8.3542    1.0000 </r>
       <r>   -8.3541    1.0000 </r>
       <r>   -8.3541    1.0000 </r>
       <r>   -8.3453    1.0000 </r>
       <r>   -8.3450    1.0000 </r>
       <r>   -8.3447    1.0000 </r>
       <r>   -8.3447    1.0000 </r>
       <r>   -8.3444    1.0000 </r>
       <r>   -8.3443    1.0000 </r>
       <r>   -8.3442    1.0000 </r>
       <r>   -8.3442    1.0000 </r>
       <r>   -8.3355    1.0000 </r>
       <r>   -8.3355    1.0000 </r>
       <r>   -8.3355    1.0000 </r>
       <r>   -8.3355    1.0000 </r>
       <r>   -8.3285    1.0000 </r>
       <r>   -8.3283    1.0000 </r>
       <r>   -8.3282    1.0000 </r>
       <r>   -8.3281    1.0000 </r>
       <r>   -8.3091    1.0000 </r>
       <r>   -8.3091    1.0000 </r>
       <r>   -8.3090    1.0000 </r>
       <r>   -8.3090    1.0000 </r>
       <r>   -8.3083    1.0000 </r>
       <r>   -8.3073    1.0000 </r>
       <r>   -8.3073    1.0000 </r>
       <r>   -8.3071    1.0000 </r>
       <r>   -8.3061    1.0000 </r>
       <r>   -8.3054    1.0000 </r>
       <r>   -8.3053    1.0000 </r>
       <r>   -8.3052    1.0000 </r>
       <r>   -8.3036    1.0000 </r>
       <r>   -8.3035    1.0000 </r>
       <r>   -8.3034    1.0000 </r>
       <r>   -8.3034    1.0000 </r>
       <r>   -8.3033    1.0000 </r>
       <r>   -8.3033    1.0000 </r>
       <r>   -8.3033    1.0000 </r>
       <r>   -8.3032    1.0000 </r>
       <r>   -8.2932    1.0000 </r>
       <r>   -8.2932    1.0000 </r>
       <r>   -8.2931    1.0000 </r>
       <r>   -8.2931    1.0000 </r>
       <r>   -8.2865    1.0000 </r>
       <r>   -8.2859    1.0000 </r>
       <r>   -8.2858    1.0000 </r>
       <r>   -8.2857    1.0000 </r>
       <r>   -8.2855    1.0000 </r>
       <r>   -8.2855    1.0000 </r>
       <r>   -8.2855    1.0000 </r>
       <r>   -8.2855    1.0000 </r>
       <r>   -8.2843    1.0000 </r>
       <r>   -8.2842    1.0000 </r>
       <r>   -8.2841    1.0000 </r>
       <r>   -8.2841    1.0000 </r>
       <r>   -8.2660    1.0000 </r>
       <r>   -8.2658    1.0000 </r>
       <r>   -8.2654    1.0000 </r>
       <r>   -8.2654    1.0000 </r>
       <r>   -8.2652    1.0000 </r>
       <r>   -8.2651    1.0000 </r>
       <r>   -8.2651    1.0000 </r>
       <r>   -8.2650    1.0000 </r>
       <r>   -8.2648    1.0000 </r>
       <r>   -8.2648    1.0000 </r>
       <r>   -8.2647    1.0000 </r>
       <r>   -8.2647    1.0000 </r>
       <r>   -8.2606    1.0000 </r>
       <r>   -8.2605    1.0000 </r>
       <r>   -8.2603    1.0000 </r>
       <r>   -8.2603    1.0000 </r>
       <r>   -8.2581    1.0000 </r>
       <r>   -8.2562    1.0000 </r>
       <r>   -8.2560    1.0000 </r>
       <r>   -8.2556    1.0000 </r>
       <r>   -8.2479    1.0000 </r>
       <r>   -8.2464    1.0000 </r>
       <r>   -8.2463    1.0000 </r>
       <r>   -8.2461    1.0000 </r>
       <r>   -8.2386    1.0000 </r>
       <r>   -8.2382    1.0000 </r>
       <r>   -8.2376    1.0000 </r>
       <r>   -8.2372    1.0000 </r>
       <r>   -8.2370    1.0000 </r>
       <r>   -8.2370    1.0000 </r>
       <r>   -8.2370    1.0000 </r>
       <r>   -8.2369    1.0000 </r>
       <r>   -8.2344    1.0000 </r>
       <r>   -8.2344    1.0000 </r>
       <r>   -8.2344    1.0000 </r>
       <r>   -8.2344    1.0000 </r>
       <r>   -8.2315    1.0000 </r>
       <r>   -8.2312    1.0000 </r>
       <r>   -8.2311    1.0000 </r>
       <r>   -8.2309    1.0000 </r>
       <r>   -8.2308    1.0000 </r>
       <r>   -8.2306    1.0000 </r>
       <r>   -8.2305    1.0000 </r>
       <r>   -8.2305    1.0000 </r>
       <r>   -8.2304    1.0000 </r>
       <r>   -8.2304    1.0000 </r>
       <r>   -8.2304    1.0000 </r>
       <r>   -8.2303    1.0000 </r>
       <r>   -8.2215    1.0000 </r>
       <r>   -8.2215    1.0000 </r>
       <r>   -8.2215    1.0000 </r>
       <r>   -8.2214    1.0000 </r>
       <r>   -8.2214    1.0000 </r>
       <r>   -8.2213    1.0000 </r>
       <r>   -8.2213    1.0000 </r>
       <r>   -8.2213    1.0000 </r>
       <r>   -8.1940    1.0000 </r>
       <r>   -8.1938    1.0000 </r>
       <r>   -8.1936    1.0000 </r>
       <r>   -8.1935    1.0000 </r>
       <r>   -8.1934    1.0000 </r>
       <r>   -8.1931    1.0000 </r>
       <r>   -8.1931    1.0000 </r>
       <r>   -8.1930    1.0000 </r>
       <r>   -8.1898    1.0000 </r>
       <r>   -8.1878    1.0000 </r>
       <r>   -8.1876    1.0000 </r>
       <r>   -8.1871    1.0000 </r>
       <r>   -8.1866    1.0000 </r>
       <r>   -8.1866    1.0000 </r>
       <r>   -8.1865    1.0000 </r>
       <r>   -8.1865    1.0000 </r>
       <r>   -8.1865    1.0000 </r>
       <r>   -8.1864    1.0000 </r>
       <r>   -8.1864    1.0000 </r>
       <r>   -8.1864    1.0000 </r>
       <r>   -8.1864    1.0000 </r>
       <r>   -8.1864    1.0000 </r>
       <r>   -8.1863    1.0000 </r>
       <r>   -8.1863    1.0000 </r>
       <r>   -8.1862    1.0000 </r>
       <r>   -8.1862    1.0000 </r>
       <r>   -8.1861    1.0000 </r>
       <r>   -8.1861    1.0000 </r>
       <r>   -8.1846    1.0000 </r>
       <r>   -8.1844    1.0000 </r>
       <r>   -8.1840    1.0000 </r>
       <r>   -8.1840    1.0000 </r>
       <r>   -8.1831    1.0000 </r>
       <r>   -8.1827    1.0000 </r>
       <r>   -8.1827    1.0000 </r>
       <r>   -8.1825    1.0000 </r>
       <r>   -8.1822    1.0000 </r>
       <r>   -8.1822    1.0000 </r>
       <r>   -8.1822    1.0000 </r>
       <r>   -8.1822    1.0000 </r>
       <r>   -8.1713    1.0000 </r>
       <r>   -8.1709    1.0000 </r>
       <r>   -8.1709    1.0000 </r>
       <r>   -8.1708    1.0000 </r>
       <r>   -8.1486    1.0000 </r>
       <r>   -8.1484    1.0000 </r>
       <r>   -8.1483    1.0000 </r>
       <r>   -8.1479    1.0000 </r>
       <r>   -8.1445    1.0000 </r>
       <r>   -8.1444    1.0000 </r>
       <r>   -8.1444    1.0000 </r>
       <r>   -8.1444    1.0000 </r>
       <r>   -8.1405    1.0000 </r>
       <r>   -8.1400    1.0000 </r>
       <r>   -8.1400    1.0000 </r>
       <r>   -8.1400    1.0000 </r>
       <r>   -8.1374    1.0000 </r>
       <r>   -8.1370    1.0000 </r>
       <r>   -8.1369    1.0000 </r>
       <r>   -8.1369    1.0000 </r>
       <r>   -8.1367    1.0000 </r>
       <r>   -8.1366    1.0000 </r>
       <r>   -8.1366    1.0000 </r>
       <r>   -8.1366    1.0000 </r>
       <r>   -8.1318    1.0000 </r>
       <r>   -8.1315    1.0000 </r>
       <r>   -8.1314    1.0000 </r>
       <r>   -8.1313    1.0000 </r>
       <r>   -8.1311    1.0000 </r>
       <r>   -8.1311    1.0000 </r>
       <r>   -8.1310    1.0000 </r>
       <r>   -8.1309    1.0000 </r>
       <r>   -8.1152    1.0000 </r>
       <r>   -8.1148    1.0000 </r>
       <r>   -8.1145    1.0000 </r>
       <r>   -8.1143    1.0000 </r>
       <r>   -8.1142    1.0000 </r>
       <r>   -8.1142    1.0000 </r>
       <r>   -8.1141    1.0000 </r>
       <r>   -8.1140    1.0000 </r>
       <r>   -8.1067    1.0000 </r>
       <r>   -8.1065    1.0000 </r>
       <r>   -8.1065    1.0000 </r>
       <r>   -8.1063    1.0000 </r>
       <r>   -8.1063    1.0000 </r>
       <r>   -8.1048    1.0000 </r>
       <r>   -8.1047    1.0000 </r>
       <r>   -8.1045    1.0000 </r>
       <r>   -8.1042    1.0000 </r>
       <r>   -8.1034    1.0000 </r>
       <r>   -8.1033    1.0000 </r>
       <r>   -8.1031    1.0000 </r>
       <r>   -8.0938    1.0000 </r>
       <r>   -8.0929    1.0000 </r>
       <r>   -8.0927    1.0000 </r>
       <r>   -8.0917    1.0000 </r>
       <r>   -8.0915    1.0000 </r>
       <r>   -8.0913    1.0000 </r>
       <r>   -8.0913    1.0000 </r>
       <r>   -8.0912    1.0000 </r>
       <r>   -8.0912    1.0000 </r>
       <r>   -8.0911    1.0000 </r>
       <r>   -8.0910    1.0000 </r>
       <r>   -8.0910    1.0000 </r>
       <r>   -8.0908    1.0000 </r>
       <r>   -8.0908    1.0000 </r>
       <r>   -8.0907    1.0000 </r>
       <r>   -8.0907    1.0000 </r>
       <r>   -8.0855    1.0000 </r>
       <r>   -8.0849    1.0000 </r>
       <r>   -8.0849    1.0000 </r>
       <r>   -8.0849    1.0000 </r>
       <r>   -8.0825    1.0000 </r>
       <r>   -8.0822    1.0000 </r>
       <r>   -8.0822    1.0000 </r>
       <r>   -8.0820    1.0000 </r>
       <r>   -8.0655    1.0000 </r>
       <r>   -8.0651    1.0000 </r>
       <r>   -8.0649    1.0000 </r>
       <r>   -8.0647    1.0000 </r>
       <r>   -8.0595    1.0000 </r>
       <r>   -8.0593    1.0000 </r>
       <r>   -8.0593    1.0000 </r>
       <r>   -8.0592    1.0000 </r>
       <r>   -8.0577    1.0000 </r>
       <r>   -8.0577    1.0000 </r>
       <r>   -8.0575    1.0000 </r>
       <r>   -8.0574    1.0000 </r>
       <r>   -8.0524    1.0000 </r>
       <r>   -8.0520    1.0000 </r>
       <r>   -8.0519    1.0000 </r>
       <r>   -8.0515    1.0000 </r>
       <r>   -8.0514    1.0000 </r>
       <r>   -8.0512    1.0000 </r>
       <r>   -8.0512    1.0000 </r>
       <r>   -8.0511    1.0000 </r>
       <r>   -8.0511    1.0000 </r>
       <r>   -8.0511    1.0000 </r>
       <r>   -8.0510    1.0000 </r>
       <r>   -8.0510    1.0000 </r>
       <r>   -8.0510    1.0000 </r>
       <r>   -8.0509    1.0000 </r>
       <r>   -8.0508    1.0000 </r>
       <r>   -8.0508    1.0000 </r>
       <r>   -8.0475    1.0000 </r>
       <r>   -8.0462    1.0000 </r>
       <r>   -8.0462    1.0000 </r>
       <r>   -8.0461    1.0000 </r>
       <r>   -8.0456    1.0000 </r>
       <r>   -8.0450    1.0000 </r>
       <r>   -8.0447    1.0000 </r>
       <r>   -8.0446    1.0000 </r>
       <r>   -8.0446    1.0000 </r>
       <r>   -8.0445    1.0000 </r>
       <r>   -8.0445    1.0000 </r>
       <r>   -8.0445    1.0000 </r>
       <r>   -8.0442    1.0000 </r>
       <r>   -8.0439    1.0000 </r>
       <r>   -8.0438    1.0000 </r>
       <r>   -8.0437    1.0000 </r>
       <r>   -8.0436    1.0000 </r>
       <r>   -8.0435    1.0000 </r>
       <r>   -8.0435    1.0000 </r>
       <r>   -8.0433    1.0000 </r>
       <r>   -8.0353    1.0000 </r>
       <r>   -8.0348    1.0000 </r>
       <r>   -8.0345    1.0000 </r>
       <r>   -8.0343    1.0000 </r>
       <r>   -8.0343    1.0000 </r>
       <r>   -8.0342    1.0000 </r>
       <r>   -8.0341    1.0000 </r>
       <r>   -8.0341    1.0000 </r>
       <r>   -8.0334    1.0000 </r>
       <r>   -8.0329    1.0000 </r>
       <r>   -8.0329    1.0000 </r>
       <r>   -8.0326    1.0000 </r>
       <r>   -8.0311    1.0000 </r>
       <r>   -8.0310    1.0000 </r>
       <r>   -8.0308    1.0000 </r>
       <r>   -8.0306    1.0000 </r>
       <r>   -8.0306    1.0000 </r>
       <r>   -8.0306    1.0000 </r>
       <r>   -8.0306    1.0000 </r>
       <r>   -8.0305    1.0000 </r>
       <r>   -8.0300    1.0000 </r>
       <r>   -8.0297    1.0000 </r>
       <r>   -8.0296    1.0000 </r>
       <r>   -8.0294    1.0000 </r>
       <r>   -8.0265    1.0000 </r>
       <r>   -8.0244    1.0000 </r>
       <r>   -8.0242    1.0000 </r>
       <r>   -8.0234    1.0000 </r>
       <r>   -8.0233    1.0000 </r>
       <r>   -8.0233    1.0000 </r>
       <r>   -8.0233    1.0000 </r>
       <r>   -8.0233    1.0000 </r>
       <r>   -8.0232    1.0000 </r>
       <r>   -8.0232    1.0000 </r>
       <r>   -8.0227    1.0000 </r>
       <r>   -8.0227    1.0000 </r>
       <r>   -8.0182    1.0000 </r>
       <r>   -8.0144    1.0000 </r>
       <r>   -8.0144    1.0000 </r>
       <r>   -8.0143    1.0000 </r>
       <r>   -8.0143    1.0000 </r>
       <r>   -8.0141    1.0000 </r>
       <r>   -8.0140    1.0000 </r>
       <r>   -8.0140    1.0000 </r>
       <r>   -8.0140    1.0000 </r>
       <r>   -8.0132    1.0000 </r>
       <r>   -8.0120    1.0000 </r>
       <r>   -8.0119    1.0000 </r>
       <r>   -8.0118    1.0000 </r>
       <r>   -8.0117    1.0000 </r>
       <r>   -8.0114    1.0000 </r>
       <r>   -8.0113    1.0000 </r>
       <r>   -8.0112    1.0000 </r>
       <r>   -8.0084    1.0000 </r>
       <r>   -8.0076    1.0000 </r>
       <r>   -8.0075    1.0000 </r>
       <r>   -8.0075    1.0000 </r>
       <r>   -8.0038    1.0000 </r>
       <r>   -8.0034    1.0000 </r>
       <r>   -8.0034    1.0000 </r>
       <r>   -8.0033    1.0000 </r>
       <r>   -8.0031    1.0000 </r>
       <r>   -8.0030    1.0000 </r>
       <r>   -8.0029    1.0000 </r>
       <r>   -8.0029    1.0000 </r>
       <r>   -7.9909    1.0000 </r>
       <r>   -7.9889    1.0000 </r>
       <r>   -7.9888    1.0000 </r>
       <r>   -7.9888    1.0000 </r>
       <r>   -7.9851    1.0000 </r>
       <r>   -7.9837    1.0000 </r>
       <r>   -7.9833    1.0000 </r>
       <r>   -7.9831    1.0000 </r>
       <r>   -7.9830    1.0000 </r>
       <r>   -7.9830    1.0000 </r>
       <r>   -7.9829    1.0000 </r>
       <r>   -7.9829    1.0000 </r>
       <r>   -7.9823    1.0000 </r>
       <r>   -7.9822    1.0000 </r>
       <r>   -7.9822    1.0000 </r>
       <r>   -7.9821    1.0000 </r>
       <r>   -7.9819    1.0000 </r>
       <r>   -7.9819    1.0000 </r>
       <r>   -7.9818    1.0000 </r>
       <r>   -7.9818    1.0000 </r>
       <r>   -7.9726    1.0000 </r>
       <r>   -7.9725    1.0000 </r>
       <r>   -7.9723    1.0000 </r>
       <r>   -7.9722    1.0000 </r>
       <r>   -7.9571    1.0000 </r>
       <r>   -7.9562    1.0000 </r>
       <r>   -7.9560    1.0000 </r>
       <r>   -7.9560    1.0000 </r>
       <r>   -7.9557    1.0000 </r>
       <r>   -7.9557    1.0000 </r>
       <r>   -7.9556    1.0000 </r>
       <r>   -7.9556    1.0000 </r>
       <r>   -7.9556    1.0000 </r>
       <r>   -7.9550    1.0000 </r>
       <r>   -7.9550    1.0000 </r>
       <r>   -7.9546    1.0000 </r>
       <r>   -7.9544    1.0000 </r>
       <r>   -7.9542    1.0000 </r>
       <r>   -7.9542    1.0000 </r>
       <r>   -7.9541    1.0000 </r>
       <r>   -7.9541    1.0000 </r>
       <r>   -7.9536    1.0000 </r>
       <r>   -7.9535    1.0000 </r>
       <r>   -7.9534    1.0000 </r>
       <r>   -7.9393    1.0000 </r>
       <r>   -7.9389    1.0000 </r>
       <r>   -7.9384    1.0000 </r>
       <r>   -7.9383    1.0000 </r>
       <r>   -7.9383    1.0000 </r>
       <r>   -7.9383    1.0000 </r>
       <r>   -7.9382    1.0000 </r>
       <r>   -7.9381    1.0000 </r>
       <r>   -7.9360    1.0000 </r>
       <r>   -7.9352    1.0000 </r>
       <r>   -7.9351    1.0000 </r>
       <r>   -7.9351    1.0000 </r>
       <r>   -7.9348    1.0000 </r>
       <r>   -7.9348    1.0000 </r>
       <r>   -7.9347    1.0000 </r>
       <r>   -7.9346    1.0000 </r>
       <r>   -7.9294    1.0000 </r>
       <r>   -7.9288    1.0000 </r>
       <r>   -7.9288    1.0000 </r>
       <r>   -7.9288    1.0000 </r>
       <r>   -7.9261    1.0000 </r>
       <r>   -7.9248    1.0000 </r>
       <r>   -7.9245    1.0000 </r>
       <r>   -7.9245    1.0000 </r>
       <r>   -7.9244    1.0000 </r>
       <r>   -7.9243    1.0000 </r>
       <r>   -7.9243    1.0000 </r>
       <r>   -7.9243    1.0000 </r>
       <r>   -7.9164    1.0000 </r>
       <r>   -7.9154    1.0000 </r>
       <r>   -7.9154    1.0000 </r>
       <r>   -7.9153    1.0000 </r>
       <r>   -7.9152    1.0000 </r>
       <r>   -7.9151    1.0000 </r>
       <r>   -7.9151    1.0000 </r>
       <r>   -7.9151    1.0000 </r>
       <r>   -7.9143    1.0000 </r>
       <r>   -7.9142    1.0000 </r>
       <r>   -7.9141    1.0000 </r>
       <r>   -7.9141    1.0000 </r>
       <r>   -7.9135    1.0000 </r>
       <r>   -7.9122    1.0000 </r>
       <r>   -7.9121    1.0000 </r>
       <r>   -7.9119    1.0000 </r>
       <r>   -7.9069    1.0000 </r>
       <r>   -7.9065    1.0000 </r>
       <r>   -7.9060    1.0000 </r>
       <r>   -7.9059    1.0000 </r>
       <r>   -7.9057    1.0000 </r>
       <r>   -7.9056    1.0000 </r>
       <r>   -7.9055    1.0000 </r>
       <r>   -7.9055    1.0000 </r>
       <r>   -7.8942    1.0000 </r>
       <r>   -7.8940    1.0000 </r>
       <r>   -7.8936    1.0000 </r>
       <r>   -7.8935    1.0000 </r>
       <r>   -7.8702    1.0000 </r>
       <r>   -7.8701    1.0000 </r>
       <r>   -7.8701    1.0000 </r>
       <r>   -7.8700    1.0000 </r>
       <r>   -7.8668    1.0000 </r>
       <r>   -7.8654    1.0000 </r>
       <r>   -7.8649    1.0000 </r>
       <r>   -7.8645    1.0000 </r>
       <r>   -7.8644    1.0000 </r>
       <r>   -7.8643    1.0000 </r>
       <r>   -7.8642    1.0000 </r>
       <r>   -7.8641    1.0000 </r>
       <r>   -7.8640    1.0000 </r>
       <r>   -7.8639    1.0000 </r>
       <r>   -7.8638    1.0000 </r>
       <r>   -7.8634    1.0000 </r>
       <r>   -7.8632    1.0000 </r>
       <r>   -7.8632    1.0000 </r>
       <r>   -7.8632    1.0000 </r>
       <r>   -7.8631    1.0000 </r>
       <r>   -7.8597    1.0000 </r>
       <r>   -7.8591    1.0000 </r>
       <r>   -7.8590    1.0000 </r>
       <r>   -7.8586    1.0000 </r>
       <r>   -7.8569    1.0000 </r>
       <r>   -7.8568    1.0000 </r>
       <r>   -7.8564    1.0000 </r>
       <r>   -7.8564    1.0000 </r>
       <r>   -7.8371    1.0000 </r>
       <r>   -7.8347    1.0000 </r>
       <r>   -7.8345    1.0000 </r>
       <r>   -7.8344    1.0000 </r>
       <r>   -7.8344    1.0000 </r>
       <r>   -7.8343    1.0000 </r>
       <r>   -7.8343    1.0000 </r>
       <r>   -7.8342    1.0000 </r>
       <r>   -7.8222    1.0000 </r>
       <r>   -7.8219    1.0000 </r>
       <r>   -7.8218    1.0000 </r>
       <r>   -7.8218    1.0000 </r>
       <r>   -7.8211    1.0000 </r>
       <r>   -7.8198    1.0000 </r>
       <r>   -7.8195    1.0000 </r>
       <r>   -7.8192    1.0000 </r>
       <r>   -7.8044    1.0000 </r>
       <r>   -7.8020    1.0000 </r>
       <r>   -7.8019    1.0000 </r>
       <r>   -7.8019    1.0000 </r>
       <r>   -7.8016    1.0000 </r>
       <r>   -7.8015    1.0000 </r>
       <r>   -7.8015    1.0000 </r>
       <r>   -7.8015    1.0000 </r>
       <r>   -7.8005    1.0000 </r>
       <r>   -7.8005    1.0000 </r>
       <r>   -7.8004    1.0000 </r>
       <r>   -7.8003    1.0000 </r>
       <r>   -7.7976    1.0000 </r>
       <r>   -7.7943    1.0000 </r>
       <r>   -7.7941    1.0000 </r>
       <r>   -7.7939    1.0000 </r>
       <r>   -7.7937    1.0000 </r>
       <r>   -7.7936    1.0000 </r>
       <r>   -7.7936    1.0000 </r>
       <r>   -7.7935    1.0000 </r>
       <r>   -7.7880    1.0000 </r>
       <r>   -7.7879    1.0000 </r>
       <r>   -7.7879    1.0000 </r>
       <r>   -7.7878    1.0000 </r>
       <r>   -7.7663    1.0000 </r>
       <r>   -7.7661    1.0000 </r>
       <r>   -7.7652    1.0000 </r>
       <r>   -7.7652    1.0000 </r>
       <r>   -7.7648    1.0000 </r>
       <r>   -7.7644    1.0000 </r>
       <r>   -7.7641    1.0000 </r>
       <r>   -7.7639    1.0000 </r>
       <r>   -7.7639    1.0000 </r>
       <r>   -7.7610    1.0000 </r>
       <r>   -7.7610    1.0000 </r>
       <r>   -7.7609    1.0000 </r>
       <r>   -7.7607    1.0000 </r>
       <r>   -7.7607    1.0000 </r>
       <r>   -7.7607    1.0000 </r>
       <r>   -7.7607    1.0000 </r>
       <r>   -7.7593    1.0000 </r>
       <r>   -7.7591    1.0000 </r>
       <r>   -7.7591    1.0000 </r>
       <r>   -7.7590    1.0000 </r>
       <r>   -7.7585    1.0000 </r>
       <r>   -7.7577    1.0000 </r>
       <r>   -7.7574    1.0000 </r>
       <r>   -7.7573    1.0000 </r>
       <r>   -7.7572    1.0000 </r>
       <r>   -7.7572    1.0000 </r>
       <r>   -7.7571    1.0000 </r>
       <r>   -7.7571    1.0000 </r>
       <r>   -7.7514    1.0000 </r>
       <r>   -7.7509    1.0000 </r>
       <r>   -7.7507    1.0000 </r>
       <r>   -7.7507    1.0000 </r>
       <r>   -7.7506    1.0000 </r>
       <r>   -7.7500    1.0000 </r>
       <r>   -7.7499    1.0000 </r>
       <r>   -7.7498    1.0000 </r>
       <r>   -7.7497    1.0000 </r>
       <r>   -7.7496    1.0000 </r>
       <r>   -7.7496    1.0000 </r>
       <r>   -7.7496    1.0000 </r>
       <r>   -7.7495    1.0000 </r>
       <r>   -7.7495    1.0000 </r>
       <r>   -7.7495    1.0000 </r>
       <r>   -7.7495    1.0000 </r>
       <r>   -7.7494    1.0000 </r>
       <r>   -7.7494    1.0000 </r>
       <r>   -7.7494    1.0000 </r>
       <r>   -7.7494    1.0000 </r>
       <r>   -7.7493    1.0000 </r>
       <r>   -7.7493    1.0000 </r>
       <r>   -7.7493    1.0000 </r>
       <r>   -7.7493    1.0000 </r>
       <r>   -7.7493    1.0000 </r>
       <r>   -7.7491    1.0000 </r>
       <r>   -7.7491    1.0000 </r>
       <r>   -7.7490    1.0000 </r>
       <r>   -7.7487    1.0000 </r>
       <r>   -7.7487    1.0000 </r>
       <r>   -7.7486    1.0000 </r>
       <r>   -7.7486    1.0000 </r>
       <r>   -7.7390    1.0000 </r>
       <r>   -7.7356    1.0000 </r>
       <r>   -7.7356    1.0000 </r>
       <r>   -7.7355    1.0000 </r>
       <r>   -7.7355    1.0000 </r>
       <r>   -7.7354    1.0000 </r>
       <r>   -7.7354    1.0000 </r>
       <r>   -7.7353    1.0000 </r>
       <r>   -7.7353    1.0000 </r>
       <r>   -7.7353    1.0000 </r>
       <r>   -7.7351    1.0000 </r>
       <r>   -7.7351    1.0000 </r>
       <r>   -7.7347    1.0000 </r>
       <r>   -7.7347    1.0000 </r>
       <r>   -7.7347    1.0000 </r>
       <r>   -7.7345    1.0000 </r>
       <r>   -7.7277    1.0000 </r>
       <r>   -7.7276    1.0000 </r>
       <r>   -7.7266    1.0000 </r>
       <r>   -7.7263    1.0000 </r>
       <r>   -7.7262    1.0000 </r>
       <r>   -7.7259    1.0000 </r>
       <r>   -7.7254    1.0000 </r>
       <r>   -7.7252    1.0000 </r>
       <r>   -7.7250    1.0000 </r>
       <r>   -7.7249    1.0000 </r>
       <r>   -7.7248    1.0000 </r>
       <r>   -7.7248    1.0000 </r>
       <r>   -7.7247    1.0000 </r>
       <r>   -7.7225    1.0000 </r>
       <r>   -7.7222    1.0000 </r>
       <r>   -7.7221    1.0000 </r>
       <r>   -7.7219    1.0000 </r>
       <r>   -7.7219    1.0000 </r>
       <r>   -7.7219    1.0000 </r>
       <r>   -7.7218    1.0000 </r>
       <r>   -7.7162    1.0000 </r>
       <r>   -7.7161    1.0000 </r>
       <r>   -7.7161    1.0000 </r>
       <r>   -7.7161    1.0000 </r>
       <r>   -7.7141    1.0000 </r>
       <r>   -7.7132    1.0000 </r>
       <r>   -7.7132    1.0000 </r>
       <r>   -7.7132    1.0000 </r>
       <r>   -7.7090    1.0000 </r>
       <r>   -7.7082    1.0000 </r>
       <r>   -7.7079    1.0000 </r>
       <r>   -7.7076    1.0000 </r>
       <r>   -7.7071    1.0000 </r>
       <r>   -7.7070    1.0000 </r>
       <r>   -7.7070    1.0000 </r>
       <r>   -7.7070    1.0000 </r>
       <r>   -7.7046    1.0000 </r>
       <r>   -7.6953    1.0000 </r>
       <r>   -7.6953    1.0000 </r>
       <r>   -7.6953    1.0000 </r>
       <r>   -7.6952    1.0000 </r>
       <r>   -7.6952    1.0000 </r>
       <r>   -7.6951    1.0000 </r>
       <r>   -7.6951    1.0000 </r>
       <r>   -7.6943    1.0000 </r>
       <r>   -7.6929    1.0000 </r>
       <r>   -7.6928    1.0000 </r>
       <r>   -7.6928    1.0000 </r>
       <r>   -7.6928    1.0000 </r>
       <r>   -7.6927    1.0000 </r>
       <r>   -7.6927    1.0000 </r>
       <r>   -7.6927    1.0000 </r>
       <r>   -7.6916    1.0000 </r>
       <r>   -7.6888    1.0000 </r>
       <r>   -7.6887    1.0000 </r>
       <r>   -7.6885    1.0000 </r>
       <r>   -7.6883    1.0000 </r>
       <r>   -7.6883    1.0000 </r>
       <r>   -7.6882    1.0000 </r>
       <r>   -7.6882    1.0000 </r>
       <r>   -7.6880    1.0000 </r>
       <r>   -7.6879    1.0000 </r>
       <r>   -7.6875    1.0000 </r>
       <r>   -7.6874    1.0000 </r>
       <r>   -7.6872    1.0000 </r>
       <r>   -7.6870    1.0000 </r>
       <r>   -7.6870    1.0000 </r>
       <r>   -7.6868    1.0000 </r>
       <r>   -7.6796    1.0000 </r>
       <r>   -7.6775    1.0000 </r>
       <r>   -7.6762    1.0000 </r>
       <r>   -7.6760    1.0000 </r>
       <r>   -7.6760    1.0000 </r>
       <r>   -7.6759    1.0000 </r>
       <r>   -7.6758    1.0000 </r>
       <r>   -7.6757    1.0000 </r>
       <r>   -7.6757    1.0000 </r>
       <r>   -7.6756    1.0000 </r>
       <r>   -7.6756    1.0000 </r>
       <r>   -7.6755    1.0000 </r>
       <r>   -7.6755    1.0000 </r>
       <r>   -7.6755    1.0000 </r>
       <r>   -7.6755    1.0000 </r>
       <r>   -7.6755    1.0000 </r>
       <r>   -7.6753    1.0000 </r>
       <r>   -7.6753    1.0000 </r>
       <r>   -7.6753    1.0000 </r>
       <r>   -7.6753    1.0000 </r>
       <r>   -7.6732    1.0000 </r>
       <r>   -7.6715    1.0000 </r>
       <r>   -7.6638    1.0000 </r>
       <r>   -7.6632    1.0000 </r>
       <r>   -7.6632    1.0000 </r>
       <r>   -7.6624    1.0000 </r>
       <r>   -7.6623    1.0000 </r>
       <r>   -7.6613    1.0000 </r>
       <r>   -7.6610    1.0000 </r>
       <r>   -7.6607    1.0000 </r>
       <r>   -7.6604    1.0000 </r>
       <r>   -7.6602    1.0000 </r>
       <r>   -7.6602    1.0000 </r>
       <r>   -7.6601    1.0000 </r>
       <r>   -7.6597    1.0000 </r>
       <r>   -7.6591    1.0000 </r>
       <r>   -7.6591    1.0000 </r>
       <r>   -7.6589    1.0000 </r>
       <r>   -7.6421    1.0000 </r>
       <r>   -7.6413    1.0000 </r>
       <r>   -7.6411    1.0000 </r>
       <r>   -7.6407    1.0000 </r>
       <r>   -7.6355    1.0000 </r>
       <r>   -7.6354    1.0000 </r>
       <r>   -7.6352    1.0000 </r>
       <r>   -7.6351    1.0000 </r>
       <r>   -7.6275    1.0000 </r>
       <r>   -7.6273    1.0000 </r>
       <r>   -7.6266    1.0000 </r>
       <r>   -7.6265    1.0000 </r>
       <r>   -7.6264    1.0000 </r>
       <r>   -7.6263    1.0000 </r>
       <r>   -7.6260    1.0000 </r>
       <r>   -7.6257    1.0000 </r>
       <r>   -7.6237    1.0000 </r>
       <r>   -7.6237    1.0000 </r>
       <r>   -7.6237    1.0000 </r>
       <r>   -7.6237    1.0000 </r>
       <r>   -7.6134    1.0000 </r>
       <r>   -7.6133    1.0000 </r>
       <r>   -7.6132    1.0000 </r>
       <r>   -7.6132    1.0000 </r>
       <r>   -7.5954    1.0000 </r>
       <r>   -7.5952    1.0000 </r>
       <r>   -7.5946    1.0000 </r>
       <r>   -7.5946    1.0000 </r>
       <r>   -7.5945    1.0000 </r>
       <r>   -7.5945    1.0000 </r>
       <r>   -7.5932    1.0000 </r>
       <r>   -7.5932    1.0000 </r>
       <r>   -7.5929    1.0000 </r>
       <r>   -7.5929    1.0000 </r>
       <r>   -7.5908    1.0000 </r>
       <r>   -7.5906    1.0000 </r>
       <r>   -7.5897    1.0000 </r>
       <r>   -7.5897    1.0000 </r>
       <r>   -7.5890    1.0000 </r>
       <r>   -7.5888    1.0000 </r>
       <r>   -7.5888    1.0000 </r>
       <r>   -7.5887    1.0000 </r>
       <r>   -7.5887    1.0000 </r>
       <r>   -7.5886    1.0000 </r>
       <r>   -7.5886    1.0000 </r>
       <r>   -7.5886    1.0000 </r>
       <r>   -7.5885    1.0000 </r>
       <r>   -7.5885    1.0000 </r>
       <r>   -7.5884    1.0000 </r>
       <r>   -7.5884    1.0000 </r>
       <r>   -7.5884    1.0000 </r>
       <r>   -7.5877    1.0000 </r>
       <r>   -7.5873    1.0000 </r>
       <r>   -7.5869    1.0000 </r>
       <r>   -7.5867    1.0000 </r>
       <r>   -7.5865    1.0000 </r>
       <r>   -7.5865    1.0000 </r>
       <r>   -7.5863    1.0000 </r>
       <r>   -7.5823    1.0000 </r>
       <r>   -7.5823    1.0000 </r>
       <r>   -7.5822    1.0000 </r>
       <r>   -7.5822    1.0000 </r>
       <r>   -7.5821    1.0000 </r>
       <r>   -7.5821    1.0000 </r>
       <r>   -7.5821    1.0000 </r>
       <r>   -7.5821    1.0000 </r>
       <r>   -7.5808    1.0000 </r>
       <r>   -7.5808    1.0000 </r>
       <r>   -7.5808    1.0000 </r>
       <r>   -7.5808    1.0000 </r>
       <r>   -7.5807    1.0000 </r>
       <r>   -7.5807    1.0000 </r>
       <r>   -7.5806    1.0000 </r>
       <r>   -7.5805    1.0000 </r>
       <r>   -7.5462    1.0000 </r>
       <r>   -7.5457    1.0000 </r>
       <r>   -7.5457    1.0000 </r>
       <r>   -7.5455    1.0000 </r>
       <r>   -7.5454    1.0000 </r>
       <r>   -7.5299    1.0000 </r>
       <r>   -7.5297    1.0000 </r>
       <r>   -7.5294    1.0000 </r>
       <r>   -7.5293    1.0000 </r>
       <r>   -7.5292    1.0000 </r>
       <r>   -7.5289    1.0000 </r>
       <r>   -7.5286    1.0000 </r>
       <r>   -7.5285    1.0000 </r>
       <r>   -7.5198    1.0000 </r>
       <r>   -7.5198    1.0000 </r>
       <r>   -7.5193    1.0000 </r>
       <r>   -7.5193    1.0000 </r>
       <r>   -7.5133    1.0000 </r>
       <r>   -7.5128    1.0000 </r>
       <r>   -7.5125    1.0000 </r>
       <r>   -7.5124    1.0000 </r>
       <r>   -7.5122    1.0000 </r>
       <r>   -7.5122    1.0000 </r>
       <r>   -7.5121    1.0000 </r>
       <r>   -7.5121    1.0000 </r>
       <r>   -7.5091    1.0000 </r>
       <r>   -7.5089    1.0000 </r>
       <r>   -7.5087    1.0000 </r>
       <r>   -7.5086    1.0000 </r>
       <r>   -7.5085    1.0000 </r>
       <r>   -7.5085    1.0000 </r>
       <r>   -7.5084    1.0000 </r>
       <r>   -7.5084    1.0000 </r>
       <r>   -7.5078    1.0000 </r>
       <r>   -7.5078    1.0000 </r>
       <r>   -7.5077    1.0000 </r>
       <r>   -7.5077    1.0000 </r>
       <r>   -7.5060    1.0000 </r>
       <r>   -7.5057    1.0000 </r>
       <r>   -7.5055    1.0000 </r>
       <r>   -7.5054    1.0000 </r>
       <r>   -7.5052    1.0000 </r>
       <r>   -7.5052    1.0000 </r>
       <r>   -7.5052    1.0000 </r>
       <r>   -7.5052    1.0000 </r>
       <r>   -7.5037    1.0000 </r>
       <r>   -7.5035    1.0000 </r>
       <r>   -7.5034    1.0000 </r>
       <r>   -7.5033    1.0000 </r>
       <r>   -7.5033    1.0000 </r>
       <r>   -7.5032    1.0000 </r>
       <r>   -7.5031    1.0000 </r>
       <r>   -7.5031    1.0000 </r>
       <r>   -7.4919    1.0000 </r>
       <r>   -7.4919    1.0000 </r>
       <r>   -7.4918    1.0000 </r>
       <r>   -7.4918    1.0000 </r>
       <r>   -7.4918    1.0000 </r>
       <r>   -7.4917    1.0000 </r>
       <r>   -7.4917    1.0000 </r>
       <r>   -7.4916    1.0000 </r>
       <r>   -7.4879    1.0000 </r>
       <r>   -7.4878    1.0000 </r>
       <r>   -7.4878    1.0000 </r>
       <r>   -7.4877    1.0000 </r>
       <r>   -7.4876    1.0000 </r>
       <r>   -7.4876    1.0000 </r>
       <r>   -7.4876    1.0000 </r>
       <r>   -7.4876    1.0000 </r>
       <r>   -7.4784    1.0000 </r>
       <r>   -7.4768    1.0000 </r>
       <r>   -7.4768    1.0000 </r>
       <r>   -7.4767    1.0000 </r>
       <r>   -7.4698    1.0000 </r>
       <r>   -7.4697    1.0000 </r>
       <r>   -7.4694    1.0000 </r>
       <r>   -7.4694    1.0000 </r>
       <r>   -7.4691    1.0000 </r>
       <r>   -7.4689    1.0000 </r>
       <r>   -7.4689    1.0000 </r>
       <r>   -7.4688    1.0000 </r>
       <r>   -7.4685    1.0000 </r>
       <r>   -7.4685    1.0000 </r>
       <r>   -7.4684    1.0000 </r>
       <r>   -7.4683    1.0000 </r>
       <r>   -7.4681    1.0000 </r>
       <r>   -7.4679    1.0000 </r>
       <r>   -7.4679    1.0000 </r>
       <r>   -7.4679    1.0000 </r>
       <r>   -7.4634    1.0000 </r>
       <r>   -7.4632    1.0000 </r>
       <r>   -7.4628    1.0000 </r>
       <r>   -7.4627    1.0000 </r>
       <r>   -7.4585    1.0000 </r>
       <r>   -7.4583    1.0000 </r>
       <r>   -7.4582    1.0000 </r>
       <r>   -7.4582    1.0000 </r>
       <r>   -7.4551    1.0000 </r>
       <r>   -7.4547    1.0000 </r>
       <r>   -7.4547    1.0000 </r>
       <r>   -7.4546    1.0000 </r>
       <r>   -7.4545    1.0000 </r>
       <r>   -7.4545    1.0000 </r>
       <r>   -7.4545    1.0000 </r>
       <r>   -7.4544    1.0000 </r>
       <r>   -7.4540    1.0000 </r>
       <r>   -7.4536    1.0000 </r>
       <r>   -7.4534    1.0000 </r>
       <r>   -7.4532    1.0000 </r>
       <r>   -7.4526    1.0000 </r>
       <r>   -7.4519    1.0000 </r>
       <r>   -7.4518    1.0000 </r>
       <r>   -7.4516    1.0000 </r>
       <r>   -7.4479    1.0000 </r>
       <r>   -7.4478    1.0000 </r>
       <r>   -7.4476    1.0000 </r>
       <r>   -7.4475    1.0000 </r>
       <r>   -7.4392    1.0000 </r>
       <r>   -7.4389    1.0000 </r>
       <r>   -7.4389    1.0000 </r>
       <r>   -7.4389    1.0000 </r>
       <r>   -7.4387    1.0000 </r>
       <r>   -7.4386    1.0000 </r>
       <r>   -7.4386    1.0000 </r>
       <r>   -7.4386    1.0000 </r>
       <r>   -7.4368    1.0000 </r>
       <r>   -7.4363    1.0000 </r>
       <r>   -7.4361    1.0000 </r>
       <r>   -7.4360    1.0000 </r>
       <r>   -7.4358    1.0000 </r>
       <r>   -7.4357    1.0000 </r>
       <r>   -7.4357    1.0000 </r>
       <r>   -7.4357    1.0000 </r>
       <r>   -7.4338    1.0000 </r>
       <r>   -7.4335    1.0000 </r>
       <r>   -7.4332    1.0000 </r>
       <r>   -7.4332    1.0000 </r>
       <r>   -7.4312    1.0000 </r>
       <r>   -7.4308    1.0000 </r>
       <r>   -7.4307    1.0000 </r>
       <r>   -7.4306    1.0000 </r>
       <r>   -7.4277    1.0000 </r>
       <r>   -7.4273    1.0000 </r>
       <r>   -7.4272    1.0000 </r>
       <r>   -7.4269    1.0000 </r>
       <r>   -7.4260    1.0000 </r>
       <r>   -7.4260    1.0000 </r>
       <r>   -7.4199    1.0000 </r>
       <r>   -7.4198    1.0000 </r>
       <r>   -7.4197    1.0000 </r>
       <r>   -7.4197    1.0000 </r>
       <r>   -7.4196    1.0000 </r>
       <r>   -7.4195    1.0000 </r>
       <r>   -7.4195    1.0000 </r>
       <r>   -7.4194    1.0000 </r>
       <r>   -7.4137    1.0000 </r>
       <r>   -7.4132    1.0000 </r>
       <r>   -7.4131    1.0000 </r>
       <r>   -7.4130    1.0000 </r>
       <r>   -7.4130    1.0000 </r>
       <r>   -7.4125    1.0000 </r>
       <r>   -7.4123    1.0000 </r>
       <r>   -7.4121    1.0000 </r>
       <r>   -7.4108    1.0000 </r>
       <r>   -7.4107    1.0000 </r>
       <r>   -7.4106    1.0000 </r>
       <r>   -7.4106    1.0000 </r>
       <r>   -7.4105    1.0000 </r>
       <r>   -7.4104    1.0000 </r>
       <r>   -7.4104    1.0000 </r>
       <r>   -7.4104    1.0000 </r>
       <r>   -7.4084    1.0000 </r>
       <r>   -7.4073    1.0000 </r>
       <r>   -7.4069    1.0000 </r>
       <r>   -7.4068    1.0000 </r>
       <r>   -7.4065    1.0000 </r>
       <r>   -7.4065    1.0000 </r>
       <r>   -7.4064    1.0000 </r>
       <r>   -7.4064    1.0000 </r>
       <r>   -7.3932    1.0000 </r>
       <r>   -7.3925    1.0000 </r>
       <r>   -7.3924    1.0000 </r>
       <r>   -7.3921    1.0000 </r>
       <r>   -7.3889    1.0000 </r>
       <r>   -7.3888    1.0000 </r>
       <r>   -7.3888    1.0000 </r>
       <r>   -7.3887    1.0000 </r>
       <r>   -7.3861    1.0000 </r>
       <r>   -7.3859    1.0000 </r>
       <r>   -7.3859    1.0000 </r>
       <r>   -7.3857    1.0000 </r>
       <r>   -7.3856    1.0000 </r>
       <r>   -7.3856    1.0000 </r>
       <r>   -7.3854    1.0000 </r>
       <r>   -7.3854    1.0000 </r>
       <r>   -7.3802    1.0000 </r>
       <r>   -7.3802    1.0000 </r>
       <r>   -7.3800    1.0000 </r>
       <r>   -7.3799    1.0000 </r>
       <r>   -7.3799    1.0000 </r>
       <r>   -7.3799    1.0000 </r>
       <r>   -7.3799    1.0000 </r>
       <r>   -7.3799    1.0000 </r>
       <r>   -7.3793    1.0000 </r>
       <r>   -7.3792    1.0000 </r>
       <r>   -7.3791    1.0000 </r>
       <r>   -7.3791    1.0000 </r>
       <r>   -7.3791    1.0000 </r>
       <r>   -7.3790    1.0000 </r>
       <r>   -7.3790    1.0000 </r>
       <r>   -7.3790    1.0000 </r>
       <r>   -7.3782    1.0000 </r>
       <r>   -7.3782    1.0000 </r>
       <r>   -7.3782    1.0000 </r>
       <r>   -7.3780    1.0000 </r>
       <r>   -7.3687    1.0000 </r>
       <r>   -7.3686    1.0000 </r>
       <r>   -7.3683    1.0000 </r>
       <r>   -7.3682    1.0000 </r>
       <r>   -7.3581    1.0000 </r>
       <r>   -7.3579    1.0000 </r>
       <r>   -7.3575    1.0000 </r>
       <r>   -7.3573    1.0000 </r>
       <r>   -7.3569    1.0000 </r>
       <r>   -7.3569    1.0000 </r>
       <r>   -7.3569    1.0000 </r>
       <r>   -7.3568    1.0000 </r>
       <r>   -7.3548    1.0000 </r>
       <r>   -7.3548    1.0000 </r>
       <r>   -7.3546    1.0000 </r>
       <r>   -7.3546    1.0000 </r>
       <r>   -7.3484    1.0000 </r>
       <r>   -7.3483    1.0000 </r>
       <r>   -7.3483    1.0000 </r>
       <r>   -7.3482    1.0000 </r>
       <r>   -7.3480    1.0000 </r>
       <r>   -7.3480    1.0000 </r>
       <r>   -7.3480    1.0000 </r>
       <r>   -7.3479    1.0000 </r>
       <r>   -7.3462    1.0000 </r>
       <r>   -7.3461    1.0000 </r>
       <r>   -7.3460    1.0000 </r>
       <r>   -7.3460    1.0000 </r>
       <r>   -7.3438    1.0000 </r>
       <r>   -7.3436    1.0000 </r>
       <r>   -7.3434    1.0000 </r>
       <r>   -7.3433    1.0000 </r>
       <r>   -7.3401    1.0000 </r>
       <r>   -7.3397    1.0000 </r>
       <r>   -7.3397    1.0000 </r>
       <r>   -7.3396    1.0000 </r>
       <r>   -7.3395    1.0000 </r>
       <r>   -7.3395    1.0000 </r>
       <r>   -7.3395    1.0000 </r>
       <r>   -7.3394    1.0000 </r>
       <r>   -7.3146    1.0000 </r>
       <r>   -7.3141    1.0000 </r>
       <r>   -7.3138    1.0000 </r>
       <r>   -7.3137    1.0000 </r>
       <r>   -7.3135    1.0000 </r>
       <r>   -7.3134    1.0000 </r>
       <r>   -7.3134    1.0000 </r>
       <r>   -7.3134    1.0000 </r>
       <r>   -7.3132    1.0000 </r>
       <r>   -7.3132    1.0000 </r>
       <r>   -7.3132    1.0000 </r>
       <r>   -7.3131    1.0000 </r>
       <r>   -7.3130    1.0000 </r>
       <r>   -7.3130    1.0000 </r>
       <r>   -7.3129    1.0000 </r>
       <r>   -7.3129    1.0000 </r>
       <r>   -7.3019    1.0000 </r>
       <r>   -7.3016    1.0000 </r>
       <r>   -7.3016    1.0000 </r>
       <r>   -7.3015    1.0000 </r>
       <r>   -7.3014    1.0000 </r>
       <r>   -7.3013    1.0000 </r>
       <r>   -7.3012    1.0000 </r>
       <r>   -7.3010    1.0000 </r>
       <r>   -7.3009    1.0000 </r>
       <r>   -7.3006    1.0000 </r>
       <r>   -7.3005    1.0000 </r>
       <r>   -7.3004    1.0000 </r>
       <r>   -7.3001    1.0000 </r>
       <r>   -7.3000    1.0000 </r>
       <r>   -7.2988    1.0000 </r>
       <r>   -7.2988    1.0000 </r>
       <r>   -7.2987    1.0000 </r>
       <r>   -7.2987    1.0000 </r>
       <r>   -7.2986    1.0000 </r>
       <r>   -7.2986    1.0000 </r>
       <r>   -7.2943    1.0000 </r>
       <r>   -7.2942    1.0000 </r>
       <r>   -7.2930    1.0000 </r>
       <r>   -7.2929    1.0000 </r>
       <r>   -7.2890    1.0000 </r>
       <r>   -7.2889    1.0000 </r>
       <r>   -7.2889    1.0000 </r>
       <r>   -7.2888    1.0000 </r>
       <r>   -7.2888    1.0000 </r>
       <r>   -7.2887    1.0000 </r>
       <r>   -7.2886    1.0000 </r>
       <r>   -7.2886    1.0000 </r>
       <r>   -7.2871    1.0000 </r>
       <r>   -7.2871    1.0000 </r>
       <r>   -7.2870    1.0000 </r>
       <r>   -7.2869    1.0000 </r>
       <r>   -7.2869    1.0000 </r>
       <r>   -7.2868    1.0000 </r>
       <r>   -7.2868    1.0000 </r>
       <r>   -7.2867    1.0000 </r>
       <r>   -7.2860    1.0000 </r>
       <r>   -7.2860    1.0000 </r>
       <r>   -7.2859    1.0000 </r>
       <r>   -7.2858    1.0000 </r>
       <r>   -7.2846    1.0000 </r>
       <r>   -7.2833    1.0000 </r>
       <r>   -7.2832    1.0000 </r>
       <r>   -7.2830    1.0000 </r>
       <r>   -7.2760    1.0000 </r>
       <r>   -7.2750    1.0000 </r>
       <r>   -7.2749    1.0000 </r>
       <r>   -7.2747    1.0000 </r>
       <r>   -7.2688    1.0000 </r>
       <r>   -7.2687    1.0000 </r>
       <r>   -7.2682    1.0000 </r>
       <r>   -7.2681    1.0000 </r>
       <r>   -7.2680    1.0000 </r>
       <r>   -7.2680    1.0000 </r>
       <r>   -7.2679    1.0000 </r>
       <r>   -7.2678    1.0000 </r>
       <r>   -7.2562    1.0000 </r>
       <r>   -7.2557    1.0000 </r>
       <r>   -7.2557    1.0000 </r>
       <r>   -7.2556    1.0000 </r>
       <r>   -7.2514    1.0000 </r>
       <r>   -7.2513    1.0000 </r>
       <r>   -7.2510    1.0000 </r>
       <r>   -7.2509    1.0000 </r>
       <r>   -7.2446    1.0000 </r>
       <r>   -7.2436    1.0000 </r>
       <r>   -7.2434    1.0000 </r>
       <r>   -7.2433    1.0000 </r>
       <r>   -7.2433    1.0000 </r>
       <r>   -7.2432    1.0000 </r>
       <r>   -7.2432    1.0000 </r>
       <r>   -7.2432    1.0000 </r>
       <r>   -7.2427    1.0000 </r>
       <r>   -7.2422    1.0000 </r>
       <r>   -7.2420    1.0000 </r>
       <r>   -7.2419    1.0000 </r>
       <r>   -7.2416    1.0000 </r>
       <r>   -7.2415    1.0000 </r>
       <r>   -7.2415    1.0000 </r>
       <r>   -7.2414    1.0000 </r>
       <r>   -7.2379    1.0000 </r>
       <r>   -7.2354    1.0000 </r>
       <r>   -7.2352    1.0000 </r>
       <r>   -7.2352    1.0000 </r>
       <r>   -7.2349    1.0000 </r>
       <r>   -7.2348    1.0000 </r>
       <r>   -7.2348    1.0000 </r>
       <r>   -7.2347    1.0000 </r>
       <r>   -7.2308    1.0000 </r>
       <r>   -7.2298    1.0000 </r>
       <r>   -7.2293    1.0000 </r>
       <r>   -7.2293    1.0000 </r>
       <r>   -7.2292    1.0000 </r>
       <r>   -7.2288    1.0000 </r>
       <r>   -7.2286    1.0000 </r>
       <r>   -7.2286    1.0000 </r>
       <r>   -7.2282    1.0000 </r>
       <r>   -7.2282    1.0000 </r>
       <r>   -7.2281    1.0000 </r>
       <r>   -7.2279    1.0000 </r>
       <r>   -7.2242    1.0000 </r>
       <r>   -7.2242    1.0000 </r>
       <r>   -7.2242    1.0000 </r>
       <r>   -7.2241    1.0000 </r>
       <r>   -7.2237    1.0000 </r>
       <r>   -7.2237    1.0000 </r>
       <r>   -7.2236    1.0000 </r>
       <r>   -7.2236    1.0000 </r>
       <r>   -7.2099    1.0000 </r>
       <r>   -7.2099    1.0000 </r>
       <r>   -7.2098    1.0000 </r>
       <r>   -7.2097    1.0000 </r>
       <r>   -7.2096    1.0000 </r>
       <r>   -7.2096    1.0000 </r>
       <r>   -7.2095    1.0000 </r>
       <r>   -7.2095    1.0000 </r>
       <r>   -7.2066    1.0000 </r>
       <r>   -7.2065    1.0000 </r>
       <r>   -7.2065    1.0000 </r>
       <r>   -7.2064    1.0000 </r>
       <r>   -7.2017    1.0000 </r>
       <r>   -7.2012    1.0000 </r>
       <r>   -7.2012    1.0000 </r>
       <r>   -7.2010    1.0000 </r>
       <r>   -7.2006    1.0000 </r>
       <r>   -7.1998    1.0000 </r>
       <r>   -7.1997    1.0000 </r>
       <r>   -7.1996    1.0000 </r>
       <r>   -7.1994    1.0000 </r>
       <r>   -7.1993    1.0000 </r>
       <r>   -7.1992    1.0000 </r>
       <r>   -7.1992    1.0000 </r>
       <r>   -7.1981    1.0000 </r>
       <r>   -7.1973    1.0000 </r>
       <r>   -7.1963    1.0000 </r>
       <r>   -7.1961    1.0000 </r>
       <r>   -7.1959    1.0000 </r>
       <r>   -7.1959    1.0000 </r>
       <r>   -7.1958    1.0000 </r>
       <r>   -7.1958    1.0000 </r>
       <r>   -7.1953    1.0000 </r>
       <r>   -7.1952    1.0000 </r>
       <r>   -7.1951    1.0000 </r>
       <r>   -7.1951    1.0000 </r>
       <r>   -7.1924    1.0000 </r>
       <r>   -7.1924    1.0000 </r>
       <r>   -7.1923    1.0000 </r>
       <r>   -7.1922    1.0000 </r>
       <r>   -7.1922    1.0000 </r>
       <r>   -7.1921    1.0000 </r>
       <r>   -7.1921    1.0000 </r>
       <r>   -7.1920    1.0000 </r>
       <r>   -7.1866    1.0000 </r>
       <r>   -7.1857    1.0000 </r>
       <r>   -7.1857    1.0000 </r>
       <r>   -7.1853    1.0000 </r>
       <r>   -7.1852    1.0000 </r>
       <r>   -7.1851    1.0000 </r>
       <r>   -7.1851    1.0000 </r>
       <r>   -7.1851    1.0000 </r>
       <r>   -7.1817    1.0000 </r>
       <r>   -7.1817    1.0000 </r>
       <r>   -7.1816    1.0000 </r>
       <r>   -7.1815    1.0000 </r>
       <r>   -7.1796    1.0000 </r>
       <r>   -7.1786    1.0000 </r>
       <r>   -7.1778    1.0000 </r>
       <r>   -7.1778    1.0000 </r>
       <r>   -7.1777    1.0000 </r>
       <r>   -7.1777    1.0000 </r>
       <r>   -7.1777    1.0000 </r>
       <r>   -7.1776    1.0000 </r>
       <r>   -7.1776    1.0000 </r>
       <r>   -7.1776    1.0000 </r>
       <r>   -7.1770    1.0000 </r>
       <r>   -7.1769    1.0000 </r>
       <r>   -7.1765    1.0000 </r>
       <r>   -7.1764    1.0000 </r>
       <r>   -7.1764    1.0000 </r>
       <r>   -7.1763    1.0000 </r>
       <r>   -7.1762    1.0000 </r>
       <r>   -7.1752    1.0000 </r>
       <r>   -7.1744    1.0000 </r>
       <r>   -7.1744    1.0000 </r>
       <r>   -7.1742    1.0000 </r>
       <r>   -7.1741    1.0000 </r>
       <r>   -7.1739    1.0000 </r>
       <r>   -7.1738    1.0000 </r>
       <r>   -7.1706    1.0000 </r>
       <r>   -7.1705    1.0000 </r>
       <r>   -7.1704    1.0000 </r>
       <r>   -7.1703    1.0000 </r>
       <r>   -7.1702    1.0000 </r>
       <r>   -7.1702    1.0000 </r>
       <r>   -7.1702    1.0000 </r>
       <r>   -7.1701    1.0000 </r>
       <r>   -7.1637    1.0000 </r>
       <r>   -7.1635    1.0000 </r>
       <r>   -7.1634    1.0000 </r>
       <r>   -7.1633    1.0000 </r>
       <r>   -7.1572    1.0000 </r>
       <r>   -7.1569    1.0000 </r>
       <r>   -7.1568    1.0000 </r>
       <r>   -7.1568    1.0000 </r>
       <r>   -7.1563    1.0000 </r>
       <r>   -7.1563    1.0000 </r>
       <r>   -7.1563    1.0000 </r>
       <r>   -7.1563    1.0000 </r>
       <r>   -7.1504    1.0000 </r>
       <r>   -7.1503    1.0000 </r>
       <r>   -7.1500    1.0000 </r>
       <r>   -7.1500    1.0000 </r>
       <r>   -7.1455    1.0000 </r>
       <r>   -7.1452    1.0000 </r>
       <r>   -7.1452    1.0000 </r>
       <r>   -7.1451    1.0000 </r>
       <r>   -7.1424    1.0000 </r>
       <r>   -7.1405    1.0000 </r>
       <r>   -7.1392    1.0000 </r>
       <r>   -7.1392    1.0000 </r>
       <r>   -7.1355    1.0000 </r>
       <r>   -7.1349    1.0000 </r>
       <r>   -7.1346    1.0000 </r>
       <r>   -7.1345    1.0000 </r>
       <r>   -7.1342    1.0000 </r>
       <r>   -7.1334    1.0000 </r>
       <r>   -7.1334    1.0000 </r>
       <r>   -7.1332    1.0000 </r>
       <r>   -7.1332    1.0000 </r>
       <r>   -7.1331    1.0000 </r>
       <r>   -7.1329    1.0000 </r>
       <r>   -7.1329    1.0000 </r>
       <r>   -7.1322    1.0000 </r>
       <r>   -7.1322    1.0000 </r>
       <r>   -7.1321    1.0000 </r>
       <r>   -7.1321    1.0000 </r>
       <r>   -7.1321    1.0000 </r>
       <r>   -7.1321    1.0000 </r>
       <r>   -7.1321    1.0000 </r>
       <r>   -7.1321    1.0000 </r>
       <r>   -7.1292    1.0000 </r>
       <r>   -7.1291    1.0000 </r>
       <r>   -7.1290    1.0000 </r>
       <r>   -7.1290    1.0000 </r>
       <r>   -7.1279    1.0000 </r>
       <r>   -7.1279    1.0000 </r>
       <r>   -7.1279    1.0000 </r>
       <r>   -7.1279    1.0000 </r>
       <r>   -7.1220    1.0000 </r>
       <r>   -7.1215    1.0000 </r>
       <r>   -7.1213    1.0000 </r>
       <r>   -7.1212    1.0000 </r>
       <r>   -7.1211    1.0000 </r>
       <r>   -7.1211    1.0000 </r>
       <r>   -7.1210    1.0000 </r>
       <r>   -7.1210    1.0000 </r>
       <r>   -7.1180    1.0000 </r>
       <r>   -7.1177    1.0000 </r>
       <r>   -7.1159    1.0000 </r>
       <r>   -7.1158    1.0000 </r>
       <r>   -7.1157    1.0000 </r>
       <r>   -7.1156    1.0000 </r>
       <r>   -7.1154    1.0000 </r>
       <r>   -7.1152    1.0000 </r>
       <r>   -7.1097    1.0000 </r>
       <r>   -7.1084    1.0000 </r>
       <r>   -7.1082    1.0000 </r>
       <r>   -7.1081    1.0000 </r>
       <r>   -7.1081    1.0000 </r>
       <r>   -7.1080    1.0000 </r>
       <r>   -7.1080    1.0000 </r>
       <r>   -7.1079    1.0000 </r>
       <r>   -7.1065    1.0000 </r>
       <r>   -7.1065    1.0000 </r>
       <r>   -7.1064    1.0000 </r>
       <r>   -7.1061    1.0000 </r>
       <r>   -7.1059    1.0000 </r>
       <r>   -7.1058    1.0000 </r>
       <r>   -7.1057    1.0000 </r>
       <r>   -7.1056    1.0000 </r>
       <r>   -7.1051    1.0000 </r>
       <r>   -7.1050    1.0000 </r>
       <r>   -7.1047    1.0000 </r>
       <r>   -7.1047    1.0000 </r>
       <r>   -7.1026    1.0000 </r>
       <r>   -7.1022    1.0000 </r>
       <r>   -7.1020    1.0000 </r>
       <r>   -7.1018    1.0000 </r>
       <r>   -7.0962    1.0000 </r>
       <r>   -7.0961    1.0000 </r>
       <r>   -7.0958    1.0000 </r>
       <r>   -7.0957    1.0000 </r>
       <r>   -7.0949    1.0000 </r>
       <r>   -7.0948    1.0000 </r>
       <r>   -7.0946    1.0000 </r>
       <r>   -7.0946    1.0000 </r>
       <r>   -7.0932    1.0000 </r>
       <r>   -7.0924    1.0000 </r>
       <r>   -7.0924    1.0000 </r>
       <r>   -7.0923    1.0000 </r>
       <r>   -7.0874    1.0000 </r>
       <r>   -7.0861    1.0000 </r>
       <r>   -7.0859    1.0000 </r>
       <r>   -7.0859    1.0000 </r>
       <r>   -7.0857    1.0000 </r>
       <r>   -7.0856    1.0000 </r>
       <r>   -7.0855    1.0000 </r>
       <r>   -7.0854    1.0000 </r>
       <r>   -7.0853    1.0000 </r>
       <r>   -7.0852    1.0000 </r>
       <r>   -7.0852    1.0000 </r>
       <r>   -7.0851    1.0000 </r>
       <r>   -7.0850    1.0000 </r>
       <r>   -7.0850    1.0000 </r>
       <r>   -7.0850    1.0000 </r>
       <r>   -7.0847    1.0000 </r>
       <r>   -7.0847    1.0000 </r>
       <r>   -7.0845    1.0000 </r>
       <r>   -7.0844    1.0000 </r>
       <r>   -7.0844    1.0000 </r>
       <r>   -7.0839    1.0000 </r>
       <r>   -7.0813    1.0000 </r>
       <r>   -7.0800    1.0000 </r>
       <r>   -7.0799    1.0000 </r>
       <r>   -7.0798    1.0000 </r>
       <r>   -7.0798    1.0000 </r>
       <r>   -7.0777    1.0000 </r>
       <r>   -7.0775    1.0000 </r>
       <r>   -7.0774    1.0000 </r>
       <r>   -7.0773    1.0000 </r>
       <r>   -7.0772    1.0000 </r>
       <r>   -7.0772    1.0000 </r>
       <r>   -7.0772    1.0000 </r>
       <r>   -7.0771    1.0000 </r>
       <r>   -7.0771    1.0000 </r>
       <r>   -7.0769    1.0000 </r>
       <r>   -7.0769    1.0000 </r>
       <r>   -7.0769    1.0000 </r>
       <r>   -7.0768    1.0000 </r>
       <r>   -7.0768    1.0000 </r>
       <r>   -7.0768    1.0000 </r>
       <r>   -7.0767    1.0000 </r>
       <r>   -7.0744    1.0000 </r>
       <r>   -7.0744    1.0000 </r>
       <r>   -7.0743    1.0000 </r>
       <r>   -7.0742    1.0000 </r>
       <r>   -7.0742    1.0000 </r>
       <r>   -7.0741    1.0000 </r>
       <r>   -7.0741    1.0000 </r>
       <r>   -7.0740    1.0000 </r>
       <r>   -7.0738    1.0000 </r>
       <r>   -7.0737    1.0000 </r>
       <r>   -7.0736    1.0000 </r>
       <r>   -7.0736    1.0000 </r>
       <r>   -7.0719    1.0000 </r>
       <r>   -7.0715    1.0000 </r>
       <r>   -7.0714    1.0000 </r>
       <r>   -7.0713    1.0000 </r>
       <r>   -7.0711    1.0000 </r>
       <r>   -7.0710    1.0000 </r>
       <r>   -7.0710    1.0000 </r>
       <r>   -7.0709    1.0000 </r>
       <r>   -7.0654    1.0000 </r>
       <r>   -7.0651    1.0000 </r>
       <r>   -7.0650    1.0000 </r>
       <r>   -7.0649    1.0000 </r>
       <r>   -7.0647    1.0000 </r>
       <r>   -7.0647    1.0000 </r>
       <r>   -7.0646    1.0000 </r>
       <r>   -7.0646    1.0000 </r>
       <r>   -7.0592    1.0000 </r>
       <r>   -7.0591    1.0000 </r>
       <r>   -7.0589    1.0000 </r>
       <r>   -7.0588    1.0000 </r>
       <r>   -7.0569    1.0000 </r>
       <r>   -7.0568    1.0000 </r>
       <r>   -7.0568    1.0000 </r>
       <r>   -7.0568    1.0000 </r>
       <r>   -7.0487    1.0000 </r>
       <r>   -7.0486    1.0000 </r>
       <r>   -7.0486    1.0000 </r>
       <r>   -7.0486    1.0000 </r>
       <r>   -7.0485    1.0000 </r>
       <r>   -7.0484    1.0000 </r>
       <r>   -7.0484    1.0000 </r>
       <r>   -7.0484    1.0000 </r>
       <r>   -7.0423    1.0000 </r>
       <r>   -7.0402    1.0000 </r>
       <r>   -7.0380    1.0000 </r>
       <r>   -7.0379    1.0000 </r>
       <r>   -7.0378    1.0000 </r>
       <r>   -7.0378    1.0000 </r>
       <r>   -7.0378    1.0000 </r>
       <r>   -7.0377    1.0000 </r>
       <r>   -7.0377    1.0000 </r>
       <r>   -7.0377    1.0000 </r>
       <r>   -7.0376    1.0000 </r>
       <r>   -7.0376    1.0000 </r>
       <r>   -7.0375    1.0000 </r>
       <r>   -7.0375    1.0000 </r>
       <r>   -7.0374    1.0000 </r>
       <r>   -7.0374    1.0000 </r>
       <r>   -7.0374    1.0000 </r>
       <r>   -7.0373    1.0000 </r>
       <r>   -7.0372    1.0000 </r>
       <r>   -7.0371    1.0000 </r>
       <r>   -7.0371    1.0000 </r>
       <r>   -7.0371    1.0000 </r>
       <r>   -7.0368    1.0000 </r>
       <r>   -7.0368    1.0000 </r>
       <r>   -7.0314    1.0000 </r>
       <r>   -7.0309    1.0000 </r>
       <r>   -7.0305    1.0000 </r>
       <r>   -7.0305    1.0000 </r>
       <r>   -7.0245    1.0000 </r>
       <r>   -7.0234    1.0000 </r>
       <r>   -7.0228    1.0000 </r>
       <r>   -7.0228    1.0000 </r>
       <r>   -7.0227    1.0000 </r>
       <r>   -7.0226    1.0000 </r>
       <r>   -7.0225    1.0000 </r>
       <r>   -7.0225    1.0000 </r>
       <r>   -7.0199    1.0000 </r>
       <r>   -7.0177    1.0000 </r>
       <r>   -7.0175    1.0000 </r>
       <r>   -7.0174    1.0000 </r>
       <r>   -7.0170    1.0000 </r>
       <r>   -7.0170    1.0000 </r>
       <r>   -7.0169    1.0000 </r>
       <r>   -7.0169    1.0000 </r>
       <r>   -7.0136    1.0000 </r>
       <r>   -7.0135    1.0000 </r>
       <r>   -7.0132    1.0000 </r>
       <r>   -7.0131    1.0000 </r>
       <r>   -7.0129    1.0000 </r>
       <r>   -7.0129    1.0000 </r>
       <r>   -7.0129    1.0000 </r>
       <r>   -7.0128    1.0000 </r>
       <r>   -7.0128    1.0000 </r>
       <r>   -7.0127    1.0000 </r>
       <r>   -7.0125    1.0000 </r>
       <r>   -7.0124    1.0000 </r>
       <r>   -7.0121    1.0000 </r>
       <r>   -7.0120    1.0000 </r>
       <r>   -7.0120    1.0000 </r>
       <r>   -7.0119    1.0000 </r>
       <r>   -7.0106    1.0000 </r>
       <r>   -7.0098    1.0000 </r>
       <r>   -7.0096    1.0000 </r>
       <r>   -7.0096    1.0000 </r>
       <r>   -7.0096    1.0000 </r>
       <r>   -7.0095    1.0000 </r>
       <r>   -7.0095    1.0000 </r>
       <r>   -7.0094    1.0000 </r>
       <r>   -6.9908    1.0000 </r>
       <r>   -6.9907    1.0000 </r>
       <r>   -6.9906    1.0000 </r>
       <r>   -6.9905    1.0000 </r>
       <r>   -6.9807    1.0000 </r>
       <r>   -6.9790    1.0000 </r>
       <r>   -6.9789    1.0000 </r>
       <r>   -6.9788    1.0000 </r>
       <r>   -6.9776    1.0000 </r>
       <r>   -6.9769    1.0000 </r>
       <r>   -6.9767    1.0000 </r>
       <r>   -6.9766    1.0000 </r>
       <r>   -6.9764    1.0000 </r>
       <r>   -6.9763    1.0000 </r>
       <r>   -6.9763    1.0000 </r>
       <r>   -6.9762    1.0000 </r>
       <r>   -6.9762    1.0000 </r>
       <r>   -6.9762    1.0000 </r>
       <r>   -6.9760    1.0000 </r>
       <r>   -6.9755    1.0000 </r>
       <r>   -6.9704    1.0000 </r>
       <r>   -6.9703    1.0000 </r>
       <r>   -6.9694    1.0000 </r>
       <r>   -6.9694    1.0000 </r>
       <r>   -6.9693    1.0000 </r>
       <r>   -6.9693    1.0000 </r>
       <r>   -6.9692    1.0000 </r>
       <r>   -6.9691    1.0000 </r>
       <r>   -6.9691    1.0000 </r>
       <r>   -6.9690    1.0000 </r>
       <r>   -6.9690    1.0000 </r>
       <r>   -6.9687    1.0000 </r>
       <r>   -6.9664    1.0000 </r>
       <r>   -6.9662    1.0000 </r>
       <r>   -6.9661    1.0000 </r>
       <r>   -6.9661    1.0000 </r>
       <r>   -6.9514    1.0000 </r>
       <r>   -6.9513    1.0000 </r>
       <r>   -6.9512    1.0000 </r>
       <r>   -6.9511    1.0000 </r>
       <r>   -6.9479    1.0000 </r>
       <r>   -6.9470    1.0000 </r>
       <r>   -6.9466    1.0000 </r>
       <r>   -6.9464    1.0000 </r>
       <r>   -6.9463    1.0000 </r>
       <r>   -6.9462    1.0000 </r>
       <r>   -6.9461    1.0000 </r>
       <r>   -6.9461    1.0000 </r>
       <r>   -6.9415    1.0000 </r>
       <r>   -6.9407    1.0000 </r>
       <r>   -6.9398    1.0000 </r>
       <r>   -6.9398    1.0000 </r>
       <r>   -6.9341    1.0000 </r>
       <r>   -6.9340    1.0000 </r>
       <r>   -6.9340    1.0000 </r>
       <r>   -6.9339    1.0000 </r>
       <r>   -6.9339    1.0000 </r>
       <r>   -6.9339    1.0000 </r>
       <r>   -6.9339    1.0000 </r>
       <r>   -6.9338    1.0000 </r>
       <r>   -6.9322    1.0000 </r>
       <r>   -6.9315    1.0000 </r>
       <r>   -6.9315    1.0000 </r>
       <r>   -6.9315    1.0000 </r>
       <r>   -6.9315    1.0000 </r>
       <r>   -6.9314    1.0000 </r>
       <r>   -6.9314    1.0000 </r>
       <r>   -6.9314    1.0000 </r>
       <r>   -6.9292    1.0000 </r>
       <r>   -6.9287    1.0000 </r>
       <r>   -6.9284    1.0000 </r>
       <r>   -6.9283    1.0000 </r>
       <r>   -6.9280    1.0000 </r>
       <r>   -6.9278    1.0000 </r>
       <r>   -6.9278    1.0000 </r>
       <r>   -6.9277    1.0000 </r>
       <r>   -6.9223    1.0000 </r>
       <r>   -6.9220    1.0000 </r>
       <r>   -6.9219    1.0000 </r>
       <r>   -6.9219    1.0000 </r>
       <r>   -6.9204    1.0000 </r>
       <r>   -6.9170    1.0000 </r>
       <r>   -6.9168    1.0000 </r>
       <r>   -6.9164    1.0000 </r>
       <r>   -6.9162    1.0000 </r>
       <r>   -6.9161    1.0000 </r>
       <r>   -6.9160    1.0000 </r>
       <r>   -6.9160    1.0000 </r>
       <r>   -6.9109    1.0000 </r>
       <r>   -6.9074    1.0000 </r>
       <r>   -6.9071    1.0000 </r>
       <r>   -6.9069    1.0000 </r>
       <r>   -6.9068    1.0000 </r>
       <r>   -6.9068    1.0000 </r>
       <r>   -6.9067    1.0000 </r>
       <r>   -6.9066    1.0000 </r>
       <r>   -6.9052    1.0000 </r>
       <r>   -6.9027    1.0000 </r>
       <r>   -6.9027    1.0000 </r>
       <r>   -6.9025    1.0000 </r>
       <r>   -6.9024    1.0000 </r>
       <r>   -6.9023    1.0000 </r>
       <r>   -6.9021    1.0000 </r>
       <r>   -6.9020    1.0000 </r>
       <r>   -6.9018    1.0000 </r>
       <r>   -6.9017    1.0000 </r>
       <r>   -6.9017    1.0000 </r>
       <r>   -6.9016    1.0000 </r>
       <r>   -6.9013    1.0000 </r>
       <r>   -6.9012    1.0000 </r>
       <r>   -6.9011    1.0000 </r>
       <r>   -6.9011    1.0000 </r>
       <r>   -6.9008    1.0000 </r>
       <r>   -6.9008    1.0000 </r>
       <r>   -6.9008    1.0000 </r>
       <r>   -6.9007    1.0000 </r>
       <r>   -6.8983    1.0000 </r>
       <r>   -6.8983    1.0000 </r>
       <r>   -6.8978    1.0000 </r>
       <r>   -6.8976    1.0000 </r>
       <r>   -6.8972    1.0000 </r>
       <r>   -6.8970    1.0000 </r>
       <r>   -6.8968    1.0000 </r>
       <r>   -6.8967    1.0000 </r>
       <r>   -6.8967    1.0000 </r>
       <r>   -6.8966    1.0000 </r>
       <r>   -6.8965    1.0000 </r>
       <r>   -6.8965    1.0000 </r>
       <r>   -6.8965    1.0000 </r>
       <r>   -6.8965    1.0000 </r>
       <r>   -6.8965    1.0000 </r>
       <r>   -6.8964    1.0000 </r>
       <r>   -6.8928    1.0000 </r>
       <r>   -6.8913    1.0000 </r>
       <r>   -6.8912    1.0000 </r>
       <r>   -6.8908    1.0000 </r>
       <r>   -6.8907    1.0000 </r>
       <r>   -6.8905    1.0000 </r>
       <r>   -6.8904    1.0000 </r>
       <r>   -6.8904    1.0000 </r>
       <r>   -6.8904    1.0000 </r>
       <r>   -6.8903    1.0000 </r>
       <r>   -6.8900    1.0000 </r>
       <r>   -6.8899    1.0000 </r>
       <r>   -6.8898    1.0000 </r>
       <r>   -6.8898    1.0000 </r>
       <r>   -6.8898    1.0000 </r>
       <r>   -6.8897    1.0000 </r>
       <r>   -6.8895    1.0000 </r>
       <r>   -6.8895    1.0000 </r>
       <r>   -6.8894    1.0000 </r>
       <r>   -6.8894    1.0000 </r>
       <r>   -6.8892    1.0000 </r>
       <r>   -6.8891    1.0000 </r>
       <r>   -6.8891    1.0000 </r>
       <r>   -6.8891    1.0000 </r>
       <r>   -6.8890    1.0000 </r>
       <r>   -6.8890    1.0000 </r>
       <r>   -6.8889    1.0000 </r>
       <r>   -6.8889    1.0000 </r>
       <r>   -6.8877    1.0000 </r>
       <r>   -6.8874    1.0000 </r>
       <r>   -6.8871    1.0000 </r>
       <r>   -6.8871    1.0000 </r>
       <r>   -6.8781    1.0000 </r>
       <r>   -6.8779    1.0000 </r>
       <r>   -6.8771    1.0000 </r>
       <r>   -6.8770    1.0000 </r>
       <r>   -6.8670    1.0000 </r>
       <r>   -6.8621    1.0000 </r>
       <r>   -6.8612    1.0000 </r>
       <r>   -6.8612    1.0000 </r>
       <r>   -6.8611    1.0000 </r>
       <r>   -6.8611    1.0000 </r>
       <r>   -6.8610    1.0000 </r>
       <r>   -6.8609    1.0000 </r>
       <r>   -6.8609    1.0000 </r>
       <r>   -6.8609    1.0000 </r>
       <r>   -6.8608    1.0000 </r>
       <r>   -6.8608    1.0000 </r>
       <r>   -6.8607    1.0000 </r>
       <r>   -6.8607    1.0000 </r>
       <r>   -6.8607    1.0000 </r>
       <r>   -6.8606    1.0000 </r>
       <r>   -6.8542    1.0000 </r>
       <r>   -6.8539    1.0000 </r>
       <r>   -6.8537    1.0000 </r>
       <r>   -6.8536    1.0000 </r>
       <r>   -6.8505    1.0000 </r>
       <r>   -6.8491    1.0000 </r>
       <r>   -6.8490    1.0000 </r>
       <r>   -6.8486    1.0000 </r>
       <r>   -6.8473    1.0000 </r>
       <r>   -6.8466    1.0000 </r>
       <r>   -6.8466    1.0000 </r>
       <r>   -6.8463    1.0000 </r>
       <r>   -6.8448    1.0000 </r>
       <r>   -6.8446    1.0000 </r>
       <r>   -6.8443    1.0000 </r>
       <r>   -6.8442    1.0000 </r>
       <r>   -6.8284    1.0000 </r>
       <r>   -6.8276    1.0000 </r>
       <r>   -6.8271    1.0000 </r>
       <r>   -6.8270    1.0000 </r>
       <r>   -6.8176    1.0000 </r>
       <r>   -6.8166    1.0000 </r>
       <r>   -6.8165    1.0000 </r>
       <r>   -6.8165    1.0000 </r>
       <r>   -6.8163    1.0000 </r>
       <r>   -6.8161    1.0000 </r>
       <r>   -6.8161    1.0000 </r>
       <r>   -6.8161    1.0000 </r>
       <r>   -6.8066    1.0000 </r>
       <r>   -6.8012    1.0000 </r>
       <r>   -6.8008    1.0000 </r>
       <r>   -6.8007    1.0000 </r>
       <r>   -6.8004    1.0000 </r>
       <r>   -6.8003    1.0000 </r>
       <r>   -6.8003    1.0000 </r>
       <r>   -6.8002    1.0000 </r>
       <r>   -6.8002    1.0000 </r>
       <r>   -6.8001    1.0000 </r>
       <r>   -6.8001    1.0000 </r>
       <r>   -6.8001    1.0000 </r>
       <r>   -6.7999    1.0000 </r>
       <r>   -6.7998    1.0000 </r>
       <r>   -6.7998    1.0000 </r>
       <r>   -6.7998    1.0000 </r>
       <r>   -6.7974    1.0000 </r>
       <r>   -6.7962    1.0000 </r>
       <r>   -6.7960    1.0000 </r>
       <r>   -6.7958    1.0000 </r>
       <r>   -6.7958    1.0000 </r>
       <r>   -6.7957    1.0000 </r>
       <r>   -6.7956    1.0000 </r>
       <r>   -6.7956    1.0000 </r>
       <r>   -6.7953    1.0000 </r>
       <r>   -6.7949    1.0000 </r>
       <r>   -6.7937    1.0000 </r>
       <r>   -6.7937    1.0000 </r>
       <r>   -6.7924    1.0000 </r>
       <r>   -6.7923    1.0000 </r>
       <r>   -6.7922    1.0000 </r>
       <r>   -6.7922    1.0000 </r>
       <r>   -6.7815    1.0000 </r>
       <r>   -6.7810    1.0000 </r>
       <r>   -6.7808    1.0000 </r>
       <r>   -6.7807    1.0000 </r>
       <r>   -6.7804    1.0000 </r>
       <r>   -6.7803    1.0000 </r>
       <r>   -6.7803    1.0000 </r>
       <r>   -6.7802    1.0000 </r>
       <r>   -6.7696    1.0000 </r>
       <r>   -6.7689    1.0000 </r>
       <r>   -6.7686    1.0000 </r>
       <r>   -6.7685    1.0000 </r>
       <r>   -6.7656    1.0000 </r>
       <r>   -6.7532    1.0000 </r>
       <r>   -6.7531    1.0000 </r>
       <r>   -6.7528    1.0000 </r>
       <r>   -6.7527    1.0000 </r>
       <r>   -6.7526    1.0000 </r>
       <r>   -6.7525    1.0000 </r>
       <r>   -6.7525    1.0000 </r>
       <r>   -6.7524    1.0000 </r>
       <r>   -6.7520    1.0000 </r>
       <r>   -6.7511    1.0000 </r>
       <r>   -6.7510    1.0000 </r>
       <r>   -6.7510    1.0000 </r>
       <r>   -6.7510    1.0000 </r>
       <r>   -6.7509    1.0000 </r>
       <r>   -6.7509    1.0000 </r>
       <r>   -6.7508    1.0000 </r>
       <r>   -6.7508    1.0000 </r>
       <r>   -6.7505    1.0000 </r>
       <r>   -6.7505    1.0000 </r>
       <r>   -6.7471    1.0000 </r>
       <r>   -6.7468    1.0000 </r>
       <r>   -6.7462    1.0000 </r>
       <r>   -6.7461    1.0000 </r>
       <r>   -6.7448    1.0000 </r>
       <r>   -6.7446    1.0000 </r>
       <r>   -6.7442    1.0000 </r>
       <r>   -6.7441    1.0000 </r>
       <r>   -6.7438    1.0000 </r>
       <r>   -6.7436    1.0000 </r>
       <r>   -6.7436    1.0000 </r>
       <r>   -6.7436    1.0000 </r>
       <r>   -6.7435    1.0000 </r>
       <r>   -6.7435    1.0000 </r>
       <r>   -6.7435    1.0000 </r>
       <r>   -6.7434    1.0000 </r>
       <r>   -6.7434    1.0000 </r>
       <r>   -6.7433    1.0000 </r>
       <r>   -6.7433    1.0000 </r>
       <r>   -6.7433    1.0000 </r>
       <r>   -6.7402    1.0000 </r>
       <r>   -6.7392    1.0000 </r>
       <r>   -6.7384    1.0000 </r>
       <r>   -6.7383    1.0000 </r>
       <r>   -6.7308    1.0000 </r>
       <r>   -6.7298    1.0000 </r>
       <r>   -6.7287    1.0000 </r>
       <r>   -6.7285    1.0000 </r>
       <r>   -6.7282    1.0000 </r>
       <r>   -6.7280    1.0000 </r>
       <r>   -6.7279    1.0000 </r>
       <r>   -6.7279    1.0000 </r>
       <r>   -6.7133    1.0000 </r>
       <r>   -6.7105    1.0000 </r>
       <r>   -6.7101    1.0000 </r>
       <r>   -6.7099    1.0000 </r>
       <r>   -6.7098    1.0000 </r>
       <r>   -6.7097    1.0000 </r>
       <r>   -6.7096    1.0000 </r>
       <r>   -6.7094    1.0000 </r>
       <r>   -6.7093    1.0000 </r>
       <r>   -6.7093    1.0000 </r>
       <r>   -6.7093    1.0000 </r>
       <r>   -6.7093    1.0000 </r>
       <r>   -6.7071    1.0000 </r>
       <r>   -6.7066    1.0000 </r>
       <r>   -6.7063    1.0000 </r>
       <r>   -6.7061    1.0000 </r>
       <r>   -6.7061    1.0000 </r>
       <r>   -6.7060    1.0000 </r>
       <r>   -6.7059    1.0000 </r>
       <r>   -6.7058    1.0000 </r>
       <r>   -6.7057    1.0000 </r>
       <r>   -6.7057    1.0000 </r>
       <r>   -6.7057    1.0000 </r>
       <r>   -6.7056    1.0000 </r>
       <r>   -6.6985    1.0000 </r>
       <r>   -6.6982    1.0000 </r>
       <r>   -6.6980    1.0000 </r>
       <r>   -6.6978    1.0000 </r>
       <r>   -6.6854    1.0000 </r>
       <r>   -6.6705    1.0000 </r>
       <r>   -6.6695    1.0000 </r>
       <r>   -6.6691    1.0000 </r>
       <r>   -6.6691    1.0000 </r>
       <r>   -6.6689    1.0000 </r>
       <r>   -6.6687    1.0000 </r>
       <r>   -6.6686    1.0000 </r>
       <r>   -6.6685    1.0000 </r>
       <r>   -6.6653    1.0000 </r>
       <r>   -6.6645    1.0000 </r>
       <r>   -6.6643    1.0000 </r>
       <r>   -6.6642    1.0000 </r>
       <r>   -6.6640    1.0000 </r>
       <r>   -6.6639    1.0000 </r>
       <r>   -6.6639    1.0000 </r>
       <r>   -6.6633    1.0000 </r>
       <r>   -6.6625    1.0000 </r>
       <r>   -6.6614    1.0000 </r>
       <r>   -6.6611    1.0000 </r>
       <r>   -6.6609    1.0000 </r>
       <r>   -6.6605    1.0000 </r>
       <r>   -6.6603    1.0000 </r>
       <r>   -6.6603    1.0000 </r>
       <r>   -6.6585    1.0000 </r>
       <r>   -6.6560    1.0000 </r>
       <r>   -6.6557    1.0000 </r>
       <r>   -6.6555    1.0000 </r>
       <r>   -6.6554    1.0000 </r>
       <r>   -6.6549    1.0000 </r>
       <r>   -6.6549    1.0000 </r>
       <r>   -6.6548    1.0000 </r>
       <r>   -6.6548    1.0000 </r>
       <r>   -6.6525    1.0000 </r>
       <r>   -6.6506    1.0000 </r>
       <r>   -6.6501    1.0000 </r>
       <r>   -6.6501    1.0000 </r>
       <r>   -6.6498    1.0000 </r>
       <r>   -6.6464    1.0000 </r>
       <r>   -6.6459    1.0000 </r>
       <r>   -6.6458    1.0000 </r>
       <r>   -6.6457    1.0000 </r>
       <r>   -6.6456    1.0000 </r>
       <r>   -6.6454    1.0000 </r>
       <r>   -6.6454    1.0000 </r>
       <r>   -6.6437    1.0000 </r>
       <r>   -6.6428    1.0000 </r>
       <r>   -6.6428    1.0000 </r>
       <r>   -6.6427    1.0000 </r>
       <r>   -6.6423    1.0000 </r>
       <r>   -6.6422    1.0000 </r>
       <r>   -6.6422    1.0000 </r>
       <r>   -6.6421    1.0000 </r>
       <r>   -6.6372    1.0000 </r>
       <r>   -6.6306    1.0000 </r>
       <r>   -6.6300    1.0000 </r>
       <r>   -6.6299    1.0000 </r>
       <r>   -6.6298    1.0000 </r>
       <r>   -6.6296    1.0000 </r>
       <r>   -6.6295    1.0000 </r>
       <r>   -6.6294    1.0000 </r>
       <r>   -6.6267    1.0000 </r>
       <r>   -6.6258    1.0000 </r>
       <r>   -6.6254    1.0000 </r>
       <r>   -6.6251    1.0000 </r>
       <r>   -6.6251    1.0000 </r>
       <r>   -6.6249    1.0000 </r>
       <r>   -6.6248    1.0000 </r>
       <r>   -6.6246    1.0000 </r>
       <r>   -6.6188    1.0000 </r>
       <r>   -6.6187    1.0000 </r>
       <r>   -6.6186    1.0000 </r>
       <r>   -6.6184    1.0000 </r>
       <r>   -6.6164    1.0000 </r>
       <r>   -6.6160    1.0000 </r>
       <r>   -6.6157    1.0000 </r>
       <r>   -6.6155    1.0000 </r>
       <r>   -6.6153    1.0000 </r>
       <r>   -6.6153    1.0000 </r>
       <r>   -6.6152    1.0000 </r>
       <r>   -6.6152    1.0000 </r>
       <r>   -6.6100    1.0000 </r>
       <r>   -6.6075    1.0000 </r>
       <r>   -6.6071    1.0000 </r>
       <r>   -6.6070    1.0000 </r>
       <r>   -6.6069    1.0000 </r>
       <r>   -6.6066    1.0000 </r>
       <r>   -6.6066    1.0000 </r>
       <r>   -6.6065    1.0000 </r>
       <r>   -6.6061    1.0000 </r>
       <r>   -6.6025    1.0000 </r>
       <r>   -6.6025    1.0000 </r>
       <r>   -6.6022    1.0000 </r>
       <r>   -6.6020    1.0000 </r>
       <r>   -6.6012    1.0000 </r>
       <r>   -6.6006    1.0000 </r>
       <r>   -6.6003    1.0000 </r>
       <r>   -6.6002    1.0000 </r>
       <r>   -6.6001    1.0000 </r>
       <r>   -6.6001    1.0000 </r>
       <r>   -6.6000    1.0000 </r>
       <r>   -6.5992    1.0000 </r>
       <r>   -6.5989    1.0000 </r>
       <r>   -6.5986    1.0000 </r>
       <r>   -6.5978    1.0000 </r>
       <r>   -6.5978    1.0000 </r>
       <r>   -6.5969    1.0000 </r>
       <r>   -6.5968    1.0000 </r>
       <r>   -6.5967    1.0000 </r>
       <r>   -6.5966    1.0000 </r>
       <r>   -6.5966    1.0000 </r>
       <r>   -6.5966    1.0000 </r>
       <r>   -6.5965    1.0000 </r>
       <r>   -6.5961    1.0000 </r>
       <r>   -6.5961    1.0000 </r>
       <r>   -6.5961    1.0000 </r>
       <r>   -6.5960    1.0000 </r>
       <r>   -6.5914    1.0000 </r>
       <r>   -6.5913    1.0000 </r>
       <r>   -6.5905    1.0000 </r>
       <r>   -6.5903    1.0000 </r>
       <r>   -6.5861    1.0000 </r>
       <r>   -6.5835    1.0000 </r>
       <r>   -6.5834    1.0000 </r>
       <r>   -6.5832    1.0000 </r>
       <r>   -6.5831    1.0000 </r>
       <r>   -6.5828    1.0000 </r>
       <r>   -6.5825    1.0000 </r>
       <r>   -6.5823    1.0000 </r>
       <r>   -6.5788    1.0000 </r>
       <r>   -6.5732    1.0000 </r>
       <r>   -6.5731    1.0000 </r>
       <r>   -6.5724    1.0000 </r>
       <r>   -6.5723    1.0000 </r>
       <r>   -6.5703    1.0000 </r>
       <r>   -6.5703    1.0000 </r>
       <r>   -6.5702    1.0000 </r>
       <r>   -6.5701    1.0000 </r>
       <r>   -6.5677    1.0000 </r>
       <r>   -6.5675    1.0000 </r>
       <r>   -6.5675    1.0000 </r>
       <r>   -6.5673    1.0000 </r>
       <r>   -6.5630    1.0000 </r>
       <r>   -6.5628    1.0000 </r>
       <r>   -6.5624    1.0000 </r>
       <r>   -6.5622    1.0000 </r>
       <r>   -6.5620    1.0000 </r>
       <r>   -6.5620    1.0000 </r>
       <r>   -6.5619    1.0000 </r>
       <r>   -6.5618    1.0000 </r>
       <r>   -6.5617    1.0000 </r>
       <r>   -6.5617    1.0000 </r>
       <r>   -6.5616    1.0000 </r>
       <r>   -6.5614    1.0000 </r>
       <r>   -6.5614    1.0000 </r>
       <r>   -6.5613    1.0000 </r>
       <r>   -6.5613    1.0000 </r>
       <r>   -6.5611    1.0000 </r>
       <r>   -6.5610    1.0000 </r>
       <r>   -6.5590    1.0000 </r>
       <r>   -6.5589    1.0000 </r>
       <r>   -6.5588    1.0000 </r>
       <r>   -6.5585    1.0000 </r>
       <r>   -6.5557    1.0000 </r>
       <r>   -6.5557    1.0000 </r>
       <r>   -6.5492    1.0000 </r>
       <r>   -6.5478    1.0000 </r>
       <r>   -6.5476    1.0000 </r>
       <r>   -6.5474    1.0000 </r>
       <r>   -6.5472    1.0000 </r>
       <r>   -6.5469    1.0000 </r>
       <r>   -6.5468    1.0000 </r>
       <r>   -6.5467    1.0000 </r>
       <r>   -6.5463    1.0000 </r>
       <r>   -6.5462    1.0000 </r>
       <r>   -6.5462    1.0000 </r>
       <r>   -6.5461    1.0000 </r>
       <r>   -6.5453    1.0000 </r>
       <r>   -6.5427    1.0000 </r>
       <r>   -6.5425    1.0000 </r>
       <r>   -6.5425    1.0000 </r>
       <r>   -6.5361    1.0000 </r>
       <r>   -6.5358    1.0000 </r>
       <r>   -6.5349    1.0000 </r>
       <r>   -6.5349    1.0000 </r>
       <r>   -6.5312    1.0000 </r>
       <r>   -6.5301    1.0000 </r>
       <r>   -6.5298    1.0000 </r>
       <r>   -6.5297    1.0000 </r>
       <r>   -6.5295    1.0000 </r>
       <r>   -6.5295    1.0000 </r>
       <r>   -6.5295    1.0000 </r>
       <r>   -6.5294    1.0000 </r>
       <r>   -6.5277    1.0000 </r>
       <r>   -6.5275    1.0000 </r>
       <r>   -6.5275    1.0000 </r>
       <r>   -6.5274    1.0000 </r>
       <r>   -6.5259    1.0000 </r>
       <r>   -6.5236    1.0000 </r>
       <r>   -6.5234    1.0000 </r>
       <r>   -6.5227    1.0000 </r>
       <r>   -6.5227    1.0000 </r>
       <r>   -6.4918    1.0000 </r>
       <r>   -6.4916    1.0000 </r>
       <r>   -6.4915    1.0000 </r>
       <r>   -6.4893    1.0000 </r>
       <r>   -6.4871    1.0000 </r>
       <r>   -6.4870    1.0000 </r>
       <r>   -6.4870    1.0000 </r>
       <r>   -6.4868    1.0000 </r>
       <r>   -6.4868    1.0000 </r>
       <r>   -6.4867    1.0000 </r>
       <r>   -6.4866    1.0000 </r>
       <r>   -6.4863    1.0000 </r>
       <r>   -6.4765    1.0000 </r>
       <r>   -6.4765    1.0000 </r>
       <r>   -6.4765    1.0000 </r>
       <r>   -6.4764    1.0000 </r>
       <r>   -6.4713    1.0000 </r>
       <r>   -6.4708    1.0000 </r>
       <r>   -6.4704    1.0000 </r>
       <r>   -6.4703    1.0000 </r>
       <r>   -6.4701    1.0000 </r>
       <r>   -6.4698    1.0000 </r>
       <r>   -6.4698    1.0000 </r>
       <r>   -6.4689    1.0000 </r>
       <r>   -6.4688    1.0000 </r>
       <r>   -6.4687    1.0000 </r>
       <r>   -6.4686    1.0000 </r>
       <r>   -6.4684    1.0000 </r>
       <r>   -6.4651    1.0000 </r>
       <r>   -6.4651    1.0000 </r>
       <r>   -6.4650    1.0000 </r>
       <r>   -6.4642    1.0000 </r>
       <r>   -6.4624    1.0000 </r>
       <r>   -6.4623    1.0000 </r>
       <r>   -6.4621    1.0000 </r>
       <r>   -6.4618    1.0000 </r>
       <r>   -6.4551    1.0000 </r>
       <r>   -6.4539    1.0000 </r>
       <r>   -6.4539    1.0000 </r>
       <r>   -6.4528    1.0000 </r>
       <r>   -6.4521    1.0000 </r>
       <r>   -6.4513    1.0000 </r>
       <r>   -6.4513    1.0000 </r>
       <r>   -6.4465    1.0000 </r>
       <r>   -6.4460    1.0000 </r>
       <r>   -6.4459    1.0000 </r>
       <r>   -6.4454    1.0000 </r>
       <r>   -6.4396    1.0000 </r>
       <r>   -6.4361    1.0000 </r>
       <r>   -6.4356    1.0000 </r>
       <r>   -6.4346    1.0000 </r>
       <r>   -6.4340    1.0000 </r>
       <r>   -6.4339    1.0000 </r>
       <r>   -6.4338    1.0000 </r>
       <r>   -6.4338    1.0000 </r>
       <r>   -6.4336    1.0000 </r>
       <r>   -6.4334    1.0000 </r>
       <r>   -6.4333    1.0000 </r>
       <r>   -6.4329    1.0000 </r>
       <r>   -6.4327    1.0000 </r>
       <r>   -6.4327    1.0000 </r>
       <r>   -6.4326    1.0000 </r>
       <r>   -6.4325    1.0000 </r>
       <r>   -6.4325    1.0000 </r>
       <r>   -6.4311    1.0000 </r>
       <r>   -6.4309    1.0000 </r>
       <r>   -6.4307    1.0000 </r>
       <r>   -6.4305    1.0000 </r>
       <r>   -6.4305    1.0000 </r>
       <r>   -6.4303    1.0000 </r>
       <r>   -6.4303    1.0000 </r>
       <r>   -6.4280    1.0000 </r>
       <r>   -6.4085    1.0000 </r>
       <r>   -6.4082    1.0000 </r>
       <r>   -6.4067    1.0000 </r>
       <r>   -6.4065    1.0000 </r>
       <r>   -6.4060    1.0000 </r>
       <r>   -6.4059    1.0000 </r>
       <r>   -6.4059    1.0000 </r>
       <r>   -6.4058    1.0000 </r>
       <r>   -6.4057    1.0000 </r>
       <r>   -6.4056    1.0000 </r>
       <r>   -6.4056    1.0000 </r>
       <r>   -6.4055    1.0000 </r>
       <r>   -6.4053    1.0000 </r>
       <r>   -6.4053    1.0000 </r>
       <r>   -6.4053    1.0000 </r>
       <r>   -6.4052    1.0000 </r>
       <r>   -6.4050    1.0000 </r>
       <r>   -6.4049    1.0000 </r>
       <r>   -6.4047    1.0000 </r>
       <r>   -6.4044    1.0000 </r>
       <r>   -6.4043    1.0000 </r>
       <r>   -6.4043    1.0000 </r>
       <r>   -6.4042    1.0000 </r>
       <r>   -6.4031    1.0000 </r>
       <r>   -6.4029    1.0000 </r>
       <r>   -6.4029    1.0000 </r>
       <r>   -6.4028    1.0000 </r>
       <r>   -6.4023    1.0000 </r>
       <r>   -6.3978    1.0000 </r>
       <r>   -6.3974    1.0000 </r>
       <r>   -6.3969    1.0000 </r>
       <r>   -6.3967    1.0000 </r>
       <r>   -6.3964    1.0000 </r>
       <r>   -6.3963    1.0000 </r>
       <r>   -6.3962    1.0000 </r>
       <r>   -6.3961    1.0000 </r>
       <r>   -6.3960    1.0000 </r>
       <r>   -6.3959    1.0000 </r>
       <r>   -6.3959    1.0000 </r>
       <r>   -6.3917    1.0000 </r>
       <r>   -6.3870    1.0000 </r>
       <r>   -6.3867    1.0000 </r>
       <r>   -6.3867    1.0000 </r>
       <r>   -6.3864    1.0000 </r>
       <r>   -6.3863    1.0000 </r>
       <r>   -6.3862    1.0000 </r>
       <r>   -6.3861    1.0000 </r>
       <r>   -6.3860    1.0000 </r>
       <r>   -6.3782    1.0000 </r>
       <r>   -6.3781    1.0000 </r>
       <r>   -6.3776    1.0000 </r>
       <r>   -6.3769    1.0000 </r>
       <r>   -6.3768    1.0000 </r>
       <r>   -6.3767    1.0000 </r>
       <r>   -6.3767    1.0000 </r>
       <r>   -6.3764    1.0000 </r>
       <r>   -6.3726    1.0000 </r>
       <r>   -6.3725    1.0000 </r>
       <r>   -6.3725    1.0000 </r>
       <r>   -6.3723    1.0000 </r>
       <r>   -6.3723    1.0000 </r>
       <r>   -6.3721    1.0000 </r>
       <r>   -6.3720    1.0000 </r>
       <r>   -6.3704    1.0000 </r>
       <r>   -6.3668    1.0000 </r>
       <r>   -6.3667    1.0000 </r>
       <r>   -6.3662    1.0000 </r>
       <r>   -6.3662    1.0000 </r>
       <r>   -6.3661    1.0000 </r>
       <r>   -6.3661    1.0000 </r>
       <r>   -6.3660    1.0000 </r>
       <r>   -6.3660    1.0000 </r>
       <r>   -6.3647    1.0000 </r>
       <r>   -6.3622    1.0000 </r>
       <r>   -6.3622    1.0000 </r>
       <r>   -6.3621    1.0000 </r>
       <r>   -6.3609    1.0000 </r>
       <r>   -6.3565    1.0000 </r>
       <r>   -6.3562    1.0000 </r>
       <r>   -6.3560    1.0000 </r>
       <r>   -6.3559    1.0000 </r>
       <r>   -6.3556    1.0000 </r>
       <r>   -6.3554    1.0000 </r>
       <r>   -6.3548    1.0000 </r>
       <r>   -6.3547    1.0000 </r>
       <r>   -6.3546    1.0000 </r>
       <r>   -6.3544    1.0000 </r>
       <r>   -6.3544    1.0000 </r>
       <r>   -6.3512    1.0000 </r>
       <r>   -6.3511    1.0000 </r>
       <r>   -6.3511    1.0000 </r>
       <r>   -6.3511    1.0000 </r>
       <r>   -6.3504    1.0000 </r>
       <r>   -6.3457    1.0000 </r>
       <r>   -6.3454    1.0000 </r>
       <r>   -6.3454    1.0000 </r>
       <r>   -6.3433    1.0000 </r>
       <r>   -6.3426    1.0000 </r>
       <r>   -6.3424    1.0000 </r>
       <r>   -6.3423    1.0000 </r>
       <r>   -6.3422    1.0000 </r>
       <r>   -6.3421    1.0000 </r>
       <r>   -6.3421    1.0000 </r>
       <r>   -6.3420    1.0000 </r>
       <r>   -6.3419    1.0000 </r>
       <r>   -6.3413    1.0000 </r>
       <r>   -6.3407    1.0000 </r>
       <r>   -6.3401    1.0000 </r>
       <r>   -6.3391    1.0000 </r>
       <r>   -6.3390    1.0000 </r>
       <r>   -6.3390    1.0000 </r>
       <r>   -6.3390    1.0000 </r>
       <r>   -6.3347    1.0000 </r>
       <r>   -6.3199    1.0000 </r>
       <r>   -6.3198    1.0000 </r>
       <r>   -6.3197    1.0000 </r>
       <r>   -6.3190    1.0000 </r>
       <r>   -6.3180    1.0000 </r>
       <r>   -6.3170    1.0000 </r>
       <r>   -6.3163    1.0000 </r>
       <r>   -6.3155    1.0000 </r>
       <r>   -6.3154    1.0000 </r>
       <r>   -6.3152    1.0000 </r>
       <r>   -6.3149    1.0000 </r>
       <r>   -6.3149    1.0000 </r>
       <r>   -6.3126    1.0000 </r>
       <r>   -6.3121    1.0000 </r>
       <r>   -6.3115    1.0000 </r>
       <r>   -6.3112    1.0000 </r>
       <r>   -6.3110    1.0000 </r>
       <r>   -6.3109    1.0000 </r>
       <r>   -6.3108    1.0000 </r>
       <r>   -6.3106    1.0000 </r>
       <r>   -6.3096    1.0000 </r>
       <r>   -6.3096    1.0000 </r>
       <r>   -6.3095    1.0000 </r>
       <r>   -6.3094    1.0000 </r>
       <r>   -6.3078    1.0000 </r>
       <r>   -6.3076    1.0000 </r>
       <r>   -6.3072    1.0000 </r>
       <r>   -6.3070    1.0000 </r>
       <r>   -6.3062    1.0000 </r>
       <r>   -6.3061    1.0000 </r>
       <r>   -6.3061    1.0000 </r>
       <r>   -6.3060    1.0000 </r>
       <r>   -6.3038    1.0000 </r>
       <r>   -6.3035    1.0000 </r>
       <r>   -6.3025    1.0000 </r>
       <r>   -6.2991    1.0000 </r>
       <r>   -6.2953    1.0000 </r>
       <r>   -6.2949    1.0000 </r>
       <r>   -6.2946    1.0000 </r>
       <r>   -6.2944    1.0000 </r>
       <r>   -6.2942    1.0000 </r>
       <r>   -6.2939    1.0000 </r>
       <r>   -6.2939    1.0000 </r>
       <r>   -6.2937    1.0000 </r>
       <r>   -6.2936    1.0000 </r>
       <r>   -6.2936    1.0000 </r>
       <r>   -6.2935    1.0000 </r>
       <r>   -6.2935    1.0000 </r>
       <r>   -6.2935    1.0000 </r>
       <r>   -6.2931    1.0000 </r>
       <r>   -6.2930    1.0000 </r>
       <r>   -6.2928    1.0000 </r>
       <r>   -6.2928    1.0000 </r>
       <r>   -6.2927    1.0000 </r>
       <r>   -6.2926    1.0000 </r>
       <r>   -6.2913    1.0000 </r>
       <r>   -6.2752    1.0000 </r>
       <r>   -6.2751    1.0000 </r>
       <r>   -6.2741    1.0000 </r>
       <r>   -6.2737    1.0000 </r>
       <r>   -6.2736    1.0000 </r>
       <r>   -6.2735    1.0000 </r>
       <r>   -6.2734    1.0000 </r>
       <r>   -6.2734    1.0000 </r>
       <r>   -6.2676    1.0000 </r>
       <r>   -6.2647    1.0000 </r>
       <r>   -6.2642    1.0000 </r>
       <r>   -6.2640    1.0000 </r>
       <r>   -6.2638    1.0000 </r>
       <r>   -6.2637    1.0000 </r>
       <r>   -6.2621    1.0000 </r>
       <r>   -6.2620    1.0000 </r>
       <r>   -6.2619    1.0000 </r>
       <r>   -6.2618    1.0000 </r>
       <r>   -6.2617    1.0000 </r>
       <r>   -6.2609    1.0000 </r>
       <r>   -6.2579    1.0000 </r>
       <r>   -6.2576    1.0000 </r>
       <r>   -6.2575    1.0000 </r>
       <r>   -6.2573    1.0000 </r>
       <r>   -6.2557    1.0000 </r>
       <r>   -6.2543    1.0000 </r>
       <r>   -6.2540    1.0000 </r>
       <r>   -6.2537    1.0000 </r>
       <r>   -6.2537    1.0000 </r>
       <r>   -6.2536    1.0000 </r>
       <r>   -6.2535    1.0000 </r>
       <r>   -6.2535    1.0000 </r>
       <r>   -6.2529    1.0000 </r>
       <r>   -6.2512    1.0000 </r>
       <r>   -6.2508    1.0000 </r>
       <r>   -6.2508    1.0000 </r>
       <r>   -6.2507    1.0000 </r>
       <r>   -6.2505    1.0000 </r>
       <r>   -6.2503    1.0000 </r>
       <r>   -6.2502    1.0000 </r>
       <r>   -6.2502    1.0000 </r>
       <r>   -6.2481    1.0000 </r>
       <r>   -6.2407    1.0000 </r>
       <r>   -6.2407    1.0000 </r>
       <r>   -6.2404    1.0000 </r>
       <r>   -6.2401    1.0000 </r>
       <r>   -6.2401    1.0000 </r>
       <r>   -6.2400    1.0000 </r>
       <r>   -6.2400    1.0000 </r>
       <r>   -6.2375    1.0000 </r>
       <r>   -6.2328    1.0000 </r>
       <r>   -6.2318    1.0000 </r>
       <r>   -6.2318    1.0000 </r>
       <r>   -6.2313    1.0000 </r>
       <r>   -6.2311    1.0000 </r>
       <r>   -6.2310    1.0000 </r>
       <r>   -6.2309    1.0000 </r>
       <r>   -6.2308    1.0000 </r>
       <r>   -6.2305    1.0000 </r>
       <r>   -6.2303    1.0000 </r>
       <r>   -6.2301    1.0000 </r>
       <r>   -6.2300    1.0000 </r>
       <r>   -6.2300    1.0000 </r>
       <r>   -6.2299    1.0000 </r>
       <r>   -6.2299    1.0000 </r>
       <r>   -6.2288    1.0000 </r>
       <r>   -6.2277    1.0000 </r>
       <r>   -6.2270    1.0000 </r>
       <r>   -6.2266    1.0000 </r>
       <r>   -6.2260    1.0000 </r>
       <r>   -6.2255    1.0000 </r>
       <r>   -6.2254    1.0000 </r>
       <r>   -6.2254    1.0000 </r>
       <r>   -6.2251    1.0000 </r>
       <r>   -6.2220    1.0000 </r>
       <r>   -6.2219    1.0000 </r>
       <r>   -6.2216    1.0000 </r>
       <r>   -6.2213    1.0000 </r>
       <r>   -6.2213    1.0000 </r>
       <r>   -6.2212    1.0000 </r>
       <r>   -6.2211    1.0000 </r>
       <r>   -6.2210    1.0000 </r>
       <r>   -6.2204    1.0000 </r>
       <r>   -6.2204    1.0000 </r>
       <r>   -6.2202    1.0000 </r>
       <r>   -6.2180    1.0000 </r>
       <r>   -6.2172    1.0000 </r>
       <r>   -6.2169    1.0000 </r>
       <r>   -6.2160    1.0000 </r>
       <r>   -6.2160    1.0000 </r>
       <r>   -6.1965    1.0000 </r>
       <r>   -6.1963    1.0000 </r>
       <r>   -6.1961    1.0000 </r>
       <r>   -6.1960    1.0000 </r>
       <r>   -6.1960    1.0000 </r>
       <r>   -6.1959    1.0000 </r>
       <r>   -6.1959    1.0000 </r>
       <r>   -6.1955    1.0000 </r>
       <r>   -6.1904    1.0000 </r>
       <r>   -6.1904    1.0000 </r>
       <r>   -6.1901    1.0000 </r>
       <r>   -6.1899    1.0000 </r>
       <r>   -6.1878    1.0000 </r>
       <r>   -6.1877    1.0000 </r>
       <r>   -6.1875    1.0000 </r>
       <r>   -6.1872    1.0000 </r>
       <r>   -6.1838    1.0000 </r>
       <r>   -6.1834    1.0000 </r>
       <r>   -6.1831    1.0000 </r>
       <r>   -6.1822    1.0000 </r>
       <r>   -6.1822    1.0000 </r>
       <r>   -6.1820    1.0000 </r>
       <r>   -6.1820    1.0000 </r>
       <r>   -6.1818    1.0000 </r>
       <r>   -6.1667    1.0000 </r>
       <r>   -6.1666    1.0000 </r>
       <r>   -6.1661    1.0000 </r>
       <r>   -6.1659    1.0000 </r>
       <r>   -6.1659    1.0000 </r>
       <r>   -6.1657    1.0000 </r>
       <r>   -6.1656    1.0000 </r>
       <r>   -6.1656    1.0000 </r>
       <r>   -6.1655    1.0000 </r>
       <r>   -6.1655    1.0000 </r>
       <r>   -6.1653    1.0000 </r>
       <r>   -6.1653    1.0000 </r>
       <r>   -6.1648    1.0000 </r>
       <r>   -6.1648    1.0000 </r>
       <r>   -6.1646    1.0000 </r>
       <r>   -6.1646    1.0000 </r>
       <r>   -6.1579    1.0000 </r>
       <r>   -6.1577    1.0000 </r>
       <r>   -6.1576    1.0000 </r>
       <r>   -6.1576    1.0000 </r>
       <r>   -6.1476    1.0000 </r>
       <r>   -6.1476    1.0000 </r>
       <r>   -6.1475    1.0000 </r>
       <r>   -6.1472    1.0000 </r>
       <r>   -6.1470    1.0000 </r>
       <r>   -6.1464    1.0000 </r>
       <r>   -6.1459    1.0000 </r>
       <r>   -6.1457    1.0000 </r>
       <r>   -6.1429    1.0000 </r>
       <r>   -6.1428    1.0000 </r>
       <r>   -6.1426    1.0000 </r>
       <r>   -6.1425    1.0000 </r>
       <r>   -6.1382    1.0000 </r>
       <r>   -6.1380    1.0000 </r>
       <r>   -6.1379    1.0000 </r>
       <r>   -6.1378    1.0000 </r>
       <r>   -6.1286    1.0000 </r>
       <r>   -6.1280    1.0000 </r>
       <r>   -6.1276    1.0000 </r>
       <r>   -6.1275    1.0000 </r>
       <r>   -6.1275    1.0000 </r>
       <r>   -6.1274    1.0000 </r>
       <r>   -6.1273    1.0000 </r>
       <r>   -6.1266    1.0000 </r>
       <r>   -6.1251    1.0000 </r>
       <r>   -6.1248    1.0000 </r>
       <r>   -6.1247    1.0000 </r>
       <r>   -6.1243    1.0000 </r>
       <r>   -6.1212    1.0000 </r>
       <r>   -6.1209    1.0000 </r>
       <r>   -6.1206    1.0000 </r>
       <r>   -6.1202    1.0000 </r>
       <r>   -6.1158    1.0000 </r>
       <r>   -6.1157    1.0000 </r>
       <r>   -6.1155    1.0000 </r>
       <r>   -6.1147    1.0000 </r>
       <r>   -6.1121    1.0000 </r>
       <r>   -6.1117    1.0000 </r>
       <r>   -6.1116    1.0000 </r>
       <r>   -6.1110    1.0000 </r>
       <r>   -6.1110    1.0000 </r>
       <r>   -6.1110    1.0000 </r>
       <r>   -6.1110    1.0000 </r>
       <r>   -6.1084    1.0000 </r>
       <r>   -6.1061    1.0000 </r>
       <r>   -6.1059    1.0000 </r>
       <r>   -6.1052    1.0000 </r>
       <r>   -6.1052    1.0000 </r>
       <r>   -6.0967    1.0000 </r>
       <r>   -6.0958    1.0000 </r>
       <r>   -6.0958    1.0000 </r>
       <r>   -6.0957    1.0000 </r>
       <r>   -6.0956    1.0000 </r>
       <r>   -6.0956    1.0000 </r>
       <r>   -6.0956    1.0000 </r>
       <r>   -6.0950    1.0000 </r>
       <r>   -6.0925    1.0000 </r>
       <r>   -6.0915    1.0000 </r>
       <r>   -6.0910    1.0000 </r>
       <r>   -6.0906    1.0000 </r>
       <r>   -6.0906    1.0000 </r>
       <r>   -6.0905    1.0000 </r>
       <r>   -6.0905    1.0000 </r>
       <r>   -6.0896    1.0000 </r>
       <r>   -6.0805    1.0000 </r>
       <r>   -6.0798    1.0000 </r>
       <r>   -6.0796    1.0000 </r>
       <r>   -6.0794    1.0000 </r>
       <r>   -6.0793    1.0000 </r>
       <r>   -6.0791    1.0000 </r>
       <r>   -6.0785    1.0000 </r>
       <r>   -6.0784    1.0000 </r>
       <r>   -6.0776    1.0000 </r>
       <r>   -6.0774    1.0000 </r>
       <r>   -6.0774    1.0000 </r>
       <r>   -6.0773    1.0000 </r>
       <r>   -6.0771    1.0000 </r>
       <r>   -6.0770    1.0000 </r>
       <r>   -6.0770    1.0000 </r>
       <r>   -6.0770    1.0000 </r>
       <r>   -6.0764    1.0000 </r>
       <r>   -6.0763    1.0000 </r>
       <r>   -6.0762    1.0000 </r>
       <r>   -6.0761    1.0000 </r>
       <r>   -6.0760    1.0000 </r>
       <r>   -6.0760    1.0000 </r>
       <r>   -6.0760    1.0000 </r>
       <r>   -6.0742    1.0000 </r>
       <r>   -6.0693    1.0000 </r>
       <r>   -6.0691    1.0000 </r>
       <r>   -6.0679    1.0000 </r>
       <r>   -6.0679    1.0000 </r>
       <r>   -6.0676    1.0000 </r>
       <r>   -6.0676    1.0000 </r>
       <r>   -6.0675    1.0000 </r>
       <r>   -6.0675    1.0000 </r>
       <r>   -6.0675    1.0000 </r>
       <r>   -6.0670    1.0000 </r>
       <r>   -6.0667    1.0000 </r>
       <r>   -6.0666    1.0000 </r>
       <r>   -6.0665    1.0000 </r>
       <r>   -6.0664    1.0000 </r>
       <r>   -6.0664    1.0000 </r>
       <r>   -6.0663    1.0000 </r>
       <r>   -6.0612    1.0000 </r>
       <r>   -6.0611    1.0000 </r>
       <r>   -6.0611    1.0000 </r>
       <r>   -6.0610    1.0000 </r>
       <r>   -6.0605    1.0000 </r>
       <r>   -6.0599    1.0000 </r>
       <r>   -6.0598    1.0000 </r>
       <r>   -6.0595    1.0000 </r>
       <r>   -6.0595    1.0000 </r>
       <r>   -6.0593    1.0000 </r>
       <r>   -6.0592    1.0000 </r>
       <r>   -6.0548    1.0000 </r>
       <r>   -6.0511    1.0000 </r>
       <r>   -6.0510    1.0000 </r>
       <r>   -6.0506    1.0000 </r>
       <r>   -6.0504    1.0000 </r>
       <r>   -6.0493    1.0000 </r>
       <r>   -6.0491    1.0000 </r>
       <r>   -6.0490    1.0000 </r>
       <r>   -6.0489    1.0000 </r>
       <r>   -6.0488    1.0000 </r>
       <r>   -6.0487    1.0000 </r>
       <r>   -6.0484    1.0000 </r>
       <r>   -6.0483    1.0000 </r>
       <r>   -6.0483    1.0000 </r>
       <r>   -6.0482    1.0000 </r>
       <r>   -6.0480    1.0000 </r>
       <r>   -6.0470    1.0000 </r>
       <r>   -6.0415    1.0000 </r>
       <r>   -6.0410    1.0000 </r>
       <r>   -6.0409    1.0000 </r>
       <r>   -6.0407    1.0000 </r>
       <r>   -6.0371    1.0000 </r>
       <r>   -6.0371    1.0000 </r>
       <r>   -6.0363    1.0000 </r>
       <r>   -6.0354    1.0000 </r>
       <r>   -6.0345    1.0000 </r>
       <r>   -6.0345    1.0000 </r>
       <r>   -6.0343    1.0000 </r>
       <r>   -6.0342    1.0000 </r>
       <r>   -6.0333    1.0000 </r>
       <r>   -6.0331    1.0000 </r>
       <r>   -6.0331    1.0000 </r>
       <r>   -6.0327    1.0000 </r>
       <r>   -6.0295    1.0000 </r>
       <r>   -6.0287    1.0000 </r>
       <r>   -6.0285    1.0000 </r>
       <r>   -6.0284    1.0000 </r>
       <r>   -6.0271    1.0000 </r>
       <r>   -6.0269    1.0000 </r>
       <r>   -6.0266    1.0000 </r>
       <r>   -6.0266    1.0000 </r>
       <r>   -6.0265    1.0000 </r>
       <r>   -6.0265    1.0000 </r>
       <r>   -6.0265    1.0000 </r>
       <r>   -6.0256    1.0000 </r>
       <r>   -6.0210    1.0000 </r>
       <r>   -6.0200    1.0000 </r>
       <r>   -6.0197    1.0000 </r>
       <r>   -6.0193    1.0000 </r>
       <r>   -6.0187    1.0000 </r>
       <r>   -6.0185    1.0000 </r>
       <r>   -6.0183    1.0000 </r>
       <r>   -6.0182    1.0000 </r>
       <r>   -6.0182    1.0000 </r>
       <r>   -6.0182    1.0000 </r>
       <r>   -6.0181    1.0000 </r>
       <r>   -6.0180    1.0000 </r>
       <r>   -6.0180    1.0000 </r>
       <r>   -6.0179    1.0000 </r>
       <r>   -6.0179    1.0000 </r>
       <r>   -6.0178    1.0000 </r>
       <r>   -6.0143    1.0000 </r>
       <r>   -6.0138    1.0000 </r>
       <r>   -6.0134    1.0000 </r>
       <r>   -6.0131    1.0000 </r>
       <r>   -6.0129    1.0000 </r>
       <r>   -6.0128    1.0000 </r>
       <r>   -6.0127    1.0000 </r>
       <r>   -6.0127    1.0000 </r>
       <r>   -6.0126    1.0000 </r>
       <r>   -6.0125    1.0000 </r>
       <r>   -6.0123    1.0000 </r>
       <r>   -6.0123    1.0000 </r>
       <r>   -6.0122    1.0000 </r>
       <r>   -6.0121    1.0000 </r>
       <r>   -6.0121    1.0000 </r>
       <r>   -6.0121    1.0000 </r>
       <r>   -6.0120    1.0000 </r>
       <r>   -6.0120    1.0000 </r>
       <r>   -6.0119    1.0000 </r>
       <r>   -6.0093    1.0000 </r>
       <r>   -6.0084    1.0000 </r>
       <r>   -6.0084    1.0000 </r>
       <r>   -6.0083    1.0000 </r>
       <r>   -6.0082    1.0000 </r>
       <r>   -6.0079    1.0000 </r>
       <r>   -6.0079    1.0000 </r>
       <r>   -6.0078    1.0000 </r>
       <r>   -6.0072    1.0000 </r>
       <r>   -6.0027    1.0000 </r>
       <r>   -6.0024    1.0000 </r>
       <r>   -6.0023    1.0000 </r>
       <r>   -6.0022    1.0000 </r>
       <r>   -6.0021    1.0000 </r>
       <r>   -6.0020    1.0000 </r>
       <r>   -6.0018    1.0000 </r>
       <r>   -6.0017    1.0000 </r>
       <r>   -6.0017    1.0000 </r>
       <r>   -6.0016    1.0000 </r>
       <r>   -6.0016    1.0000 </r>
       <r>   -6.0009    1.0000 </r>
       <r>   -6.0001    1.0000 </r>
       <r>   -5.9997    1.0000 </r>
       <r>   -5.9993    1.0000 </r>
       <r>   -5.9992    1.0000 </r>
       <r>   -5.9989    1.0000 </r>
       <r>   -5.9987    1.0000 </r>
       <r>   -5.9986    1.0000 </r>
       <r>   -5.9984    1.0000 </r>
       <r>   -5.9983    1.0000 </r>
       <r>   -5.9973    1.0000 </r>
       <r>   -5.9972    1.0000 </r>
       <r>   -5.9970    1.0000 </r>
       <r>   -5.9970    1.0000 </r>
       <r>   -5.9922    1.0000 </r>
       <r>   -5.9920    1.0000 </r>
       <r>   -5.9919    1.0000 </r>
       <r>   -5.9914    1.0000 </r>
       <r>   -5.9914    1.0000 </r>
       <r>   -5.9914    1.0000 </r>
       <r>   -5.9913    1.0000 </r>
       <r>   -5.9910    1.0000 </r>
       <r>   -5.9902    1.0000 </r>
       <r>   -5.9900    1.0000 </r>
       <r>   -5.9900    1.0000 </r>
       <r>   -5.9871    1.0000 </r>
       <r>   -5.9850    1.0000 </r>
       <r>   -5.9849    1.0000 </r>
       <r>   -5.9848    1.0000 </r>
       <r>   -5.9845    1.0000 </r>
       <r>   -5.9838    1.0000 </r>
       <r>   -5.9831    1.0000 </r>
       <r>   -5.9819    1.0000 </r>
       <r>   -5.9815    1.0000 </r>
       <r>   -5.9814    1.0000 </r>
       <r>   -5.9814    1.0000 </r>
       <r>   -5.9813    1.0000 </r>
       <r>   -5.9809    1.0000 </r>
       <r>   -5.9808    1.0000 </r>
       <r>   -5.9808    1.0000 </r>
       <r>   -5.9807    1.0000 </r>
       <r>   -5.9797    1.0000 </r>
       <r>   -5.9790    1.0000 </r>
       <r>   -5.9786    1.0000 </r>
       <r>   -5.9785    1.0000 </r>
       <r>   -5.9785    1.0000 </r>
       <r>   -5.9784    1.0000 </r>
       <r>   -5.9783    1.0000 </r>
       <r>   -5.9783    1.0000 </r>
       <r>   -5.9777    1.0000 </r>
       <r>   -5.9746    1.0000 </r>
       <r>   -5.9741    1.0000 </r>
       <r>   -5.9741    1.0000 </r>
       <r>   -5.9738    1.0000 </r>
       <r>   -5.9709    1.0000 </r>
       <r>   -5.9707    1.0000 </r>
       <r>   -5.9703    1.0000 </r>
       <r>   -5.9702    1.0000 </r>
       <r>   -5.9702    1.0000 </r>
       <r>   -5.9702    1.0000 </r>
       <r>   -5.9701    1.0000 </r>
       <r>   -5.9680    1.0000 </r>
       <r>   -5.9653    1.0000 </r>
       <r>   -5.9653    1.0000 </r>
       <r>   -5.9648    1.0000 </r>
       <r>   -5.9647    1.0000 </r>
       <r>   -5.9606    1.0000 </r>
       <r>   -5.9606    1.0000 </r>
       <r>   -5.9602    1.0000 </r>
       <r>   -5.9599    1.0000 </r>
       <r>   -5.9570    1.0000 </r>
       <r>   -5.9569    1.0000 </r>
       <r>   -5.9568    1.0000 </r>
       <r>   -5.9568    1.0000 </r>
       <r>   -5.9537    1.0000 </r>
       <r>   -5.9537    1.0000 </r>
       <r>   -5.9536    1.0000 </r>
       <r>   -5.9534    1.0000 </r>
       <r>   -5.9457    1.0000 </r>
       <r>   -5.9455    1.0000 </r>
       <r>   -5.9451    1.0000 </r>
       <r>   -5.9447    1.0000 </r>
       <r>   -5.9446    1.0000 </r>
       <r>   -5.9446    1.0000 </r>
       <r>   -5.9445    1.0000 </r>
       <r>   -5.9445    1.0000 </r>
       <r>   -5.9444    1.0000 </r>
       <r>   -5.9443    1.0000 </r>
       <r>   -5.9443    1.0000 </r>
       <r>   -5.9436    1.0000 </r>
       <r>   -5.9436    1.0000 </r>
       <r>   -5.9436    1.0000 </r>
       <r>   -5.9436    1.0000 </r>
       <r>   -5.9431    1.0000 </r>
       <r>   -5.9427    1.0000 </r>
       <r>   -5.9427    1.0000 </r>
       <r>   -5.9426    1.0000 </r>
       <r>   -5.9423    1.0000 </r>
       <r>   -5.9422    1.0000 </r>
       <r>   -5.9421    1.0000 </r>
       <r>   -5.9420    1.0000 </r>
       <r>   -5.9414    1.0000 </r>
       <r>   -5.9393    1.0000 </r>
       <r>   -5.9389    1.0000 </r>
       <r>   -5.9386    1.0000 </r>
       <r>   -5.9369    1.0000 </r>
       <r>   -5.9350    1.0000 </r>
       <r>   -5.9346    1.0000 </r>
       <r>   -5.9345    1.0000 </r>
       <r>   -5.9341    1.0000 </r>
       <r>   -5.9318    1.0000 </r>
       <r>   -5.9317    1.0000 </r>
       <r>   -5.9313    1.0000 </r>
       <r>   -5.9283    1.0000 </r>
       <r>   -5.9281    1.0000 </r>
       <r>   -5.9278    1.0000 </r>
       <r>   -5.9275    1.0000 </r>
       <r>   -5.9274    1.0000 </r>
       <r>   -5.9272    1.0000 </r>
       <r>   -5.9272    1.0000 </r>
       <r>   -5.9271    1.0000 </r>
       <r>   -5.9264    1.0000 </r>
       <r>   -5.9260    1.0000 </r>
       <r>   -5.9255    1.0000 </r>
       <r>   -5.9252    1.0000 </r>
       <r>   -5.9252    1.0000 </r>
       <r>   -5.9149    1.0000 </r>
       <r>   -5.9147    1.0000 </r>
       <r>   -5.9147    1.0000 </r>
       <r>   -5.9144    1.0000 </r>
       <r>   -5.9143    1.0000 </r>
       <r>   -5.9139    1.0000 </r>
       <r>   -5.9139    1.0000 </r>
       <r>   -5.9134    1.0000 </r>
       <r>   -5.9133    1.0000 </r>
       <r>   -5.9131    1.0000 </r>
       <r>   -5.9130    1.0000 </r>
       <r>   -5.9130    1.0000 </r>
       <r>   -5.9125    1.0000 </r>
       <r>   -5.9113    1.0000 </r>
       <r>   -5.9112    1.0000 </r>
       <r>   -5.9112    1.0000 </r>
       <r>   -5.9111    1.0000 </r>
       <r>   -5.9096    1.0000 </r>
       <r>   -5.9096    1.0000 </r>
       <r>   -5.9053    1.0000 </r>
       <r>   -5.9043    1.0000 </r>
       <r>   -5.9040    1.0000 </r>
       <r>   -5.9039    1.0000 </r>
       <r>   -5.9034    1.0000 </r>
       <r>   -5.8829    1.0000 </r>
       <r>   -5.8803    1.0000 </r>
       <r>   -5.8777    1.0000 </r>
       <r>   -5.8773    1.0000 </r>
       <r>   -5.8770    1.0000 </r>
       <r>   -5.8768    1.0000 </r>
       <r>   -5.8766    1.0000 </r>
       <r>   -5.8763    1.0000 </r>
       <r>   -5.8758    1.0000 </r>
       <r>   -5.8758    1.0000 </r>
       <r>   -5.8758    1.0000 </r>
       <r>   -5.8757    1.0000 </r>
       <r>   -5.8748    1.0000 </r>
       <r>   -5.8747    1.0000 </r>
       <r>   -5.8746    1.0000 </r>
       <r>   -5.8733    1.0000 </r>
       <r>   -5.8715    1.0000 </r>
       <r>   -5.8689    1.0000 </r>
       <r>   -5.8688    1.0000 </r>
       <r>   -5.8685    1.0000 </r>
       <r>   -5.8644    1.0000 </r>
       <r>   -5.8639    1.0000 </r>
       <r>   -5.8637    1.0000 </r>
       <r>   -5.8635    1.0000 </r>
       <r>   -5.8633    1.0000 </r>
       <r>   -5.8632    1.0000 </r>
       <r>   -5.8631    1.0000 </r>
       <r>   -5.8631    1.0000 </r>
       <r>   -5.8629    1.0000 </r>
       <r>   -5.8622    1.0000 </r>
       <r>   -5.8615    1.0000 </r>
       <r>   -5.8608    1.0000 </r>
       <r>   -5.8607    1.0000 </r>
       <r>   -5.8606    1.0000 </r>
       <r>   -5.8604    1.0000 </r>
       <r>   -5.8604    1.0000 </r>
       <r>   -5.8597    1.0000 </r>
       <r>   -5.8560    1.0000 </r>
       <r>   -5.8560    1.0000 </r>
       <r>   -5.8557    1.0000 </r>
       <r>   -5.8551    1.0000 </r>
       <r>   -5.8535    1.0000 </r>
       <r>   -5.8531    1.0000 </r>
       <r>   -5.8530    1.0000 </r>
       <r>   -5.8528    1.0000 </r>
       <r>   -5.8528    1.0000 </r>
       <r>   -5.8528    1.0000 </r>
       <r>   -5.8527    1.0000 </r>
       <r>   -5.8522    1.0000 </r>
       <r>   -5.8444    1.0000 </r>
       <r>   -5.8439    1.0000 </r>
       <r>   -5.8437    1.0000 </r>
       <r>   -5.8436    1.0000 </r>
       <r>   -5.8435    1.0000 </r>
       <r>   -5.8433    1.0000 </r>
       <r>   -5.8432    1.0000 </r>
       <r>   -5.8425    1.0000 </r>
       <r>   -5.8419    1.0000 </r>
       <r>   -5.8416    1.0000 </r>
       <r>   -5.8412    1.0000 </r>
       <r>   -5.8391    1.0000 </r>
       <r>   -5.8372    1.0000 </r>
       <r>   -5.8370    1.0000 </r>
       <r>   -5.8369    1.0000 </r>
       <r>   -5.8359    1.0000 </r>
       <r>   -5.8331    1.0000 </r>
       <r>   -5.8327    1.0000 </r>
       <r>   -5.8321    1.0000 </r>
       <r>   -5.8320    1.0000 </r>
       <r>   -5.8240    1.0000 </r>
       <r>   -5.8236    1.0000 </r>
       <r>   -5.8232    1.0000 </r>
       <r>   -5.8230    1.0000 </r>
       <r>   -5.8229    1.0000 </r>
       <r>   -5.8228    1.0000 </r>
       <r>   -5.8227    1.0000 </r>
       <r>   -5.8223    1.0000 </r>
       <r>   -5.8152    1.0000 </r>
       <r>   -5.8149    1.0000 </r>
       <r>   -5.8148    1.0000 </r>
       <r>   -5.8145    1.0000 </r>
       <r>   -5.8137    1.0000 </r>
       <r>   -5.8135    1.0000 </r>
       <r>   -5.8133    1.0000 </r>
       <r>   -5.8131    1.0000 </r>
       <r>   -5.8131    1.0000 </r>
       <r>   -5.8130    1.0000 </r>
       <r>   -5.8130    1.0000 </r>
       <r>   -5.8129    1.0000 </r>
       <r>   -5.8118    1.0000 </r>
       <r>   -5.8101    1.0000 </r>
       <r>   -5.8100    1.0000 </r>
       <r>   -5.8100    1.0000 </r>
       <r>   -5.8081    1.0000 </r>
       <r>   -5.8060    1.0000 </r>
       <r>   -5.8056    1.0000 </r>
       <r>   -5.8056    1.0000 </r>
       <r>   -5.8043    1.0000 </r>
       <r>   -5.7964    1.0000 </r>
       <r>   -5.7963    1.0000 </r>
       <r>   -5.7963    1.0000 </r>
       <r>   -5.7962    1.0000 </r>
       <r>   -5.7892    1.0000 </r>
       <r>   -5.7890    1.0000 </r>
       <r>   -5.7888    1.0000 </r>
       <r>   -5.7860    1.0000 </r>
       <r>   -5.7849    1.0000 </r>
       <r>   -5.7849    1.0000 </r>
       <r>   -5.7848    1.0000 </r>
       <r>   -5.7847    1.0000 </r>
       <r>   -5.7788    1.0000 </r>
       <r>   -5.7788    1.0000 </r>
       <r>   -5.7786    1.0000 </r>
       <r>   -5.7780    1.0000 </r>
       <r>   -5.7734    1.0000 </r>
       <r>   -5.7732    1.0000 </r>
       <r>   -5.7727    1.0000 </r>
       <r>   -5.7724    1.0000 </r>
       <r>   -5.7681    1.0000 </r>
       <r>   -5.7679    1.0000 </r>
       <r>   -5.7671    1.0000 </r>
       <r>   -5.7665    1.0000 </r>
       <r>   -5.7609    1.0000 </r>
       <r>   -5.7608    1.0000 </r>
       <r>   -5.7604    1.0000 </r>
       <r>   -5.7603    1.0000 </r>
       <r>   -5.7600    1.0000 </r>
       <r>   -5.7598    1.0000 </r>
       <r>   -5.7594    1.0000 </r>
       <r>   -5.7594    1.0000 </r>
       <r>   -5.7568    1.0000 </r>
       <r>   -5.7568    1.0000 </r>
       <r>   -5.7567    1.0000 </r>
       <r>   -5.7566    1.0000 </r>
       <r>   -5.7532    1.0000 </r>
       <r>   -5.7525    1.0000 </r>
       <r>   -5.7521    1.0000 </r>
       <r>   -5.7512    1.0000 </r>
       <r>   -5.7457    1.0000 </r>
       <r>   -5.7446    1.0000 </r>
       <r>   -5.7437    1.0000 </r>
       <r>   -5.7433    1.0000 </r>
       <r>   -5.7432    1.0000 </r>
       <r>   -5.7431    1.0000 </r>
       <r>   -5.7431    1.0000 </r>
       <r>   -5.7431    1.0000 </r>
       <r>   -5.7430    1.0000 </r>
       <r>   -5.7428    1.0000 </r>
       <r>   -5.7427    1.0000 </r>
       <r>   -5.7427    1.0000 </r>
       <r>   -5.7426    1.0000 </r>
       <r>   -5.7425    1.0000 </r>
       <r>   -5.7425    1.0000 </r>
       <r>   -5.7423    1.0000 </r>
       <r>   -5.7412    1.0000 </r>
       <r>   -5.7342    1.0000 </r>
       <r>   -5.7338    1.0000 </r>
       <r>   -5.7337    1.0000 </r>
       <r>   -5.7328    1.0000 </r>
       <r>   -5.7328    1.0000 </r>
       <r>   -5.7327    1.0000 </r>
       <r>   -5.7326    1.0000 </r>
       <r>   -5.7321    1.0000 </r>
       <r>   -5.7308    1.0000 </r>
       <r>   -5.7307    1.0000 </r>
       <r>   -5.7306    1.0000 </r>
       <r>   -5.7297    1.0000 </r>
       <r>   -5.7296    1.0000 </r>
       <r>   -5.7295    1.0000 </r>
       <r>   -5.7295    1.0000 </r>
       <r>   -5.7277    1.0000 </r>
       <r>   -5.7209    1.0000 </r>
       <r>   -5.7069    1.0000 </r>
       <r>   -5.7064    1.0000 </r>
       <r>   -5.7058    1.0000 </r>
       <r>   -5.7058    1.0000 </r>
       <r>   -5.7052    1.0000 </r>
       <r>   -5.7050    1.0000 </r>
       <r>   -5.7049    1.0000 </r>
       <r>   -5.7048    1.0000 </r>
       <r>   -5.7029    1.0000 </r>
       <r>   -5.6994    1.0000 </r>
       <r>   -5.6990    1.0000 </r>
       <r>   -5.6981    1.0000 </r>
       <r>   -5.6978    1.0000 </r>
       <r>   -5.6976    1.0000 </r>
       <r>   -5.6966    1.0000 </r>
       <r>   -5.6963    1.0000 </r>
       <r>   -5.6962    1.0000 </r>
       <r>   -5.6961    1.0000 </r>
       <r>   -5.6961    1.0000 </r>
       <r>   -5.6956    1.0000 </r>
       <r>   -5.6925    1.0000 </r>
       <r>   -5.6922    1.0000 </r>
       <r>   -5.6922    1.0000 </r>
       <r>   -5.6918    1.0000 </r>
       <r>   -5.6866    1.0000 </r>
       <r>   -5.6864    1.0000 </r>
       <r>   -5.6863    1.0000 </r>
       <r>   -5.6861    1.0000 </r>
       <r>   -5.6837    1.0000 </r>
       <r>   -5.6758    1.0000 </r>
       <r>   -5.6750    1.0000 </r>
       <r>   -5.6747    1.0000 </r>
       <r>   -5.6744    1.0000 </r>
       <r>   -5.6736    1.0000 </r>
       <r>   -5.6731    1.0000 </r>
       <r>   -5.6726    1.0000 </r>
       <r>   -5.6724    1.0000 </r>
       <r>   -5.6722    1.0000 </r>
       <r>   -5.6721    1.0000 </r>
       <r>   -5.6720    1.0000 </r>
       <r>   -5.6714    1.0000 </r>
       <r>   -5.6711    1.0000 </r>
       <r>   -5.6711    1.0000 </r>
       <r>   -5.6707    1.0000 </r>
       <r>   -5.6701    1.0000 </r>
       <r>   -5.6693    1.0000 </r>
       <r>   -5.6691    1.0000 </r>
       <r>   -5.6690    1.0000 </r>
       <r>   -5.6690    1.0000 </r>
       <r>   -5.6687    1.0000 </r>
       <r>   -5.6687    1.0000 </r>
       <r>   -5.6687    1.0000 </r>
       <r>   -5.6681    1.0000 </r>
       <r>   -5.6678    1.0000 </r>
       <r>   -5.6672    1.0000 </r>
       <r>   -5.6667    1.0000 </r>
       <r>   -5.6666    1.0000 </r>
       <r>   -5.6661    1.0000 </r>
       <r>   -5.6661    1.0000 </r>
       <r>   -5.6659    1.0000 </r>
       <r>   -5.6656    1.0000 </r>
       <r>   -5.6652    1.0000 </r>
       <r>   -5.6646    1.0000 </r>
       <r>   -5.6645    1.0000 </r>
       <r>   -5.6644    1.0000 </r>
       <r>   -5.6643    1.0000 </r>
       <r>   -5.6643    1.0000 </r>
       <r>   -5.6642    1.0000 </r>
       <r>   -5.6642    1.0000 </r>
       <r>   -5.6642    1.0000 </r>
       <r>   -5.6642    1.0000 </r>
       <r>   -5.6642    1.0000 </r>
       <r>   -5.6642    1.0000 </r>
       <r>   -5.6641    1.0000 </r>
       <r>   -5.6641    1.0000 </r>
       <r>   -5.6641    1.0000 </r>
       <r>   -5.6639    1.0000 </r>
       <r>   -5.6637    1.0000 </r>
       <r>   -5.6636    1.0000 </r>
       <r>   -5.6631    1.0000 </r>
       <r>   -5.6626    1.0000 </r>
       <r>   -5.6620    1.0000 </r>
       <r>   -5.6613    1.0000 </r>
       <r>   -5.6613    1.0000 </r>
       <r>   -5.6610    1.0000 </r>
       <r>   -5.6609    1.0000 </r>
       <r>   -5.6608    1.0000 </r>
       <r>   -5.6607    1.0000 </r>
       <r>   -5.6606    1.0000 </r>
       <r>   -5.6604    1.0000 </r>
       <r>   -5.6602    1.0000 </r>
       <r>   -5.6601    1.0000 </r>
       <r>   -5.6601    1.0000 </r>
       <r>   -5.6600    1.0000 </r>
       <r>   -5.6600    1.0000 </r>
       <r>   -5.6593    1.0000 </r>
       <r>   -5.6591    1.0000 </r>
       <r>   -5.6590    1.0000 </r>
       <r>   -5.6589    1.0000 </r>
       <r>   -5.6585    1.0000 </r>
       <r>   -5.6576    1.0000 </r>
       <r>   -5.6556    1.0000 </r>
       <r>   -5.6556    1.0000 </r>
       <r>   -5.6554    1.0000 </r>
       <r>   -5.6551    1.0000 </r>
       <r>   -5.6550    1.0000 </r>
       <r>   -5.6549    1.0000 </r>
       <r>   -5.6520    1.0000 </r>
       <r>   -5.6485    1.0000 </r>
       <r>   -5.6374    1.0000 </r>
       <r>   -5.6368    1.0000 </r>
       <r>   -5.6363    1.0000 </r>
       <r>   -5.6362    1.0000 </r>
       <r>   -5.6362    1.0000 </r>
       <r>   -5.6357    1.0000 </r>
       <r>   -5.6349    1.0000 </r>
       <r>   -5.6348    1.0000 </r>
       <r>   -5.6347    1.0000 </r>
       <r>   -5.6347    1.0000 </r>
       <r>   -5.6335    1.0000 </r>
       <r>   -5.6314    1.0000 </r>
       <r>   -5.6299    1.0000 </r>
       <r>   -5.6295    1.0000 </r>
       <r>   -5.6279    1.0000 </r>
       <r>   -5.6249    1.0000 </r>
       <r>   -5.6162    1.0000 </r>
       <r>   -5.6160    1.0000 </r>
       <r>   -5.6157    1.0000 </r>
       <r>   -5.6155    1.0000 </r>
       <r>   -5.6155    1.0000 </r>
       <r>   -5.6155    1.0000 </r>
       <r>   -5.6154    1.0000 </r>
       <r>   -5.6145    1.0000 </r>
       <r>   -5.6135    1.0000 </r>
       <r>   -5.6133    1.0000 </r>
       <r>   -5.6124    1.0000 </r>
       <r>   -5.6123    1.0000 </r>
       <r>   -5.6116    1.0000 </r>
       <r>   -5.6113    1.0000 </r>
       <r>   -5.6105    1.0000 </r>
       <r>   -5.6104    1.0000 </r>
       <r>   -5.6102    1.0000 </r>
       <r>   -5.6101    1.0000 </r>
       <r>   -5.6100    1.0000 </r>
       <r>   -5.6098    1.0000 </r>
       <r>   -5.6097    1.0000 </r>
       <r>   -5.6096    1.0000 </r>
       <r>   -5.6094    1.0000 </r>
       <r>   -5.6093    1.0000 </r>
       <r>   -5.6093    1.0000 </r>
       <r>   -5.6093    1.0000 </r>
       <r>   -5.6091    1.0000 </r>
       <r>   -5.6090    1.0000 </r>
       <r>   -5.6089    1.0000 </r>
       <r>   -5.6089    1.0000 </r>
       <r>   -5.6083    1.0000 </r>
       <r>   -5.6047    1.0000 </r>
       <r>   -5.6021    1.0000 </r>
       <r>   -5.6020    1.0000 </r>
       <r>   -5.6019    1.0000 </r>
       <r>   -5.6015    1.0000 </r>
       <r>   -5.6013    1.0000 </r>
       <r>   -5.6011    1.0000 </r>
       <r>   -5.6009    1.0000 </r>
       <r>   -5.6006    1.0000 </r>
       <r>   -5.5970    1.0000 </r>
       <r>   -5.5962    1.0000 </r>
       <r>   -5.5960    1.0000 </r>
       <r>   -5.5957    1.0000 </r>
       <r>   -5.5956    1.0000 </r>
       <r>   -5.5956    1.0000 </r>
       <r>   -5.5944    1.0000 </r>
       <r>   -5.5939    1.0000 </r>
       <r>   -5.5939    1.0000 </r>
       <r>   -5.5937    1.0000 </r>
       <r>   -5.5936    1.0000 </r>
       <r>   -5.5933    1.0000 </r>
       <r>   -5.5923    1.0000 </r>
       <r>   -5.5920    1.0000 </r>
       <r>   -5.5919    1.0000 </r>
       <r>   -5.5914    1.0000 </r>
       <r>   -5.5894    1.0000 </r>
       <r>   -5.5891    1.0000 </r>
       <r>   -5.5887    1.0000 </r>
       <r>   -5.5886    1.0000 </r>
       <r>   -5.5884    1.0000 </r>
       <r>   -5.5884    1.0000 </r>
       <r>   -5.5874    1.0000 </r>
       <r>   -5.5802    1.0000 </r>
       <r>   -5.5568    1.0000 </r>
       <r>   -5.5565    1.0000 </r>
       <r>   -5.5564    1.0000 </r>
       <r>   -5.5562    1.0000 </r>
       <r>   -5.5561    1.0000 </r>
       <r>   -5.5560    1.0000 </r>
       <r>   -5.5557    1.0000 </r>
       <r>   -5.5546    1.0000 </r>
       <r>   -5.5485    1.0000 </r>
       <r>   -5.5471    1.0000 </r>
       <r>   -5.5470    1.0000 </r>
       <r>   -5.5470    1.0000 </r>
       <r>   -5.5468    1.0000 </r>
       <r>   -5.5468    1.0000 </r>
       <r>   -5.5464    1.0000 </r>
       <r>   -5.5460    1.0000 </r>
       <r>   -5.5440    1.0000 </r>
       <r>   -5.5439    1.0000 </r>
       <r>   -5.5438    1.0000 </r>
       <r>   -5.5423    1.0000 </r>
       <r>   -5.5356    1.0000 </r>
       <r>   -5.5355    1.0000 </r>
       <r>   -5.5354    1.0000 </r>
       <r>   -5.5297    1.0000 </r>
       <r>   -5.5239    1.0000 </r>
       <r>   -5.5233    1.0000 </r>
       <r>   -5.5233    1.0000 </r>
       <r>   -5.5225    1.0000 </r>
       <r>   -5.5217    1.0000 </r>
       <r>   -5.5212    1.0000 </r>
       <r>   -5.5212    1.0000 </r>
       <r>   -5.5205    1.0000 </r>
       <r>   -5.5164    1.0000 </r>
       <r>   -5.5161    1.0000 </r>
       <r>   -5.5047    1.0000 </r>
       <r>   -5.5033    1.0000 </r>
       <r>   -5.5031    1.0000 </r>
       <r>   -5.5029    1.0000 </r>
       <r>   -5.5025    1.0000 </r>
       <r>   -5.5025    1.0000 </r>
       <r>   -5.5023    1.0000 </r>
       <r>   -5.5021    1.0000 </r>
       <r>   -5.5015    1.0000 </r>
       <r>   -5.5014    1.0000 </r>
       <r>   -5.5014    1.0000 </r>
       <r>   -5.5014    1.0000 </r>
       <r>   -5.5008    1.0000 </r>
       <r>   -5.5000    1.0000 </r>
       <r>   -5.4997    1.0000 </r>
       <r>   -5.4995    1.0000 </r>
       <r>   -5.4989    1.0000 </r>
       <r>   -5.4985    1.0000 </r>
       <r>   -5.4985    1.0000 </r>
       <r>   -5.4983    1.0000 </r>
       <r>   -5.4982    1.0000 </r>
       <r>   -5.4981    1.0000 </r>
       <r>   -5.4980    1.0000 </r>
       <r>   -5.4980    1.0000 </r>
       <r>   -5.4952    1.0000 </r>
       <r>   -5.4873    1.0000 </r>
       <r>   -5.4871    1.0000 </r>
       <r>   -5.4869    1.0000 </r>
       <r>   -5.4869    1.0000 </r>
       <r>   -5.4868    1.0000 </r>
       <r>   -5.4867    1.0000 </r>
       <r>   -5.4865    1.0000 </r>
       <r>   -5.4855    1.0000 </r>
       <r>   -5.4850    1.0000 </r>
       <r>   -5.4847    1.0000 </r>
       <r>   -5.4846    1.0000 </r>
       <r>   -5.4842    1.0000 </r>
       <r>   -5.4842    1.0000 </r>
       <r>   -5.4841    1.0000 </r>
       <r>   -5.4840    1.0000 </r>
       <r>   -5.4820    1.0000 </r>
       <r>   -5.4648    1.0000 </r>
       <r>   -5.4646    1.0000 </r>
       <r>   -5.4636    1.0000 </r>
       <r>   -5.4627    1.0000 </r>
       <r>   -5.4585    1.0000 </r>
       <r>   -5.4576    1.0000 </r>
       <r>   -5.4570    1.0000 </r>
       <r>   -5.4568    1.0000 </r>
       <r>   -5.4557    1.0000 </r>
       <r>   -5.4555    1.0000 </r>
       <r>   -5.4544    1.0000 </r>
       <r>   -5.4544    1.0000 </r>
       <r>   -5.4542    1.0000 </r>
       <r>   -5.4541    1.0000 </r>
       <r>   -5.4540    1.0000 </r>
       <r>   -5.4512    1.0000 </r>
       <r>   -5.4363    1.0000 </r>
       <r>   -5.4362    1.0000 </r>
       <r>   -5.4362    1.0000 </r>
       <r>   -5.4361    1.0000 </r>
       <r>   -5.4343    1.0000 </r>
       <r>   -5.4342    1.0000 </r>
       <r>   -5.4340    1.0000 </r>
       <r>   -5.4339    1.0000 </r>
       <r>   -5.4271    1.0000 </r>
       <r>   -5.4267    1.0000 </r>
       <r>   -5.4266    1.0000 </r>
       <r>   -5.4265    1.0000 </r>
       <r>   -5.4243    1.0000 </r>
       <r>   -5.4213    1.0000 </r>
       <r>   -5.4208    1.0000 </r>
       <r>   -5.4206    1.0000 </r>
       <r>   -5.4206    1.0000 </r>
       <r>   -5.4204    1.0000 </r>
       <r>   -5.4202    1.0000 </r>
       <r>   -5.4202    1.0000 </r>
       <r>   -5.4187    1.0000 </r>
       <r>   -5.4179    1.0000 </r>
       <r>   -5.4178    1.0000 </r>
       <r>   -5.4176    1.0000 </r>
       <r>   -5.4165    1.0000 </r>
       <r>   -5.4162    1.0000 </r>
       <r>   -5.4162    1.0000 </r>
       <r>   -5.4162    1.0000 </r>
       <r>   -5.4155    1.0000 </r>
       <r>   -5.4152    1.0000 </r>
       <r>   -5.4147    1.0000 </r>
       <r>   -5.4146    1.0000 </r>
       <r>   -5.4145    1.0000 </r>
       <r>   -5.4142    1.0000 </r>
       <r>   -5.4142    1.0000 </r>
       <r>   -5.4135    1.0000 </r>
       <r>   -5.4133    1.0000 </r>
       <r>   -5.4132    1.0000 </r>
       <r>   -5.4130    1.0000 </r>
       <r>   -5.4125    1.0000 </r>
       <r>   -5.4120    1.0000 </r>
       <r>   -5.4119    1.0000 </r>
       <r>   -5.4119    1.0000 </r>
       <r>   -5.4118    1.0000 </r>
       <r>   -5.4118    1.0000 </r>
       <r>   -5.4117    1.0000 </r>
       <r>   -5.4116    1.0000 </r>
       <r>   -5.4102    1.0000 </r>
       <r>   -5.4074    1.0000 </r>
       <r>   -5.4073    1.0000 </r>
       <r>   -5.4073    1.0000 </r>
       <r>   -5.4071    1.0000 </r>
       <r>   -5.4069    1.0000 </r>
       <r>   -5.4068    1.0000 </r>
       <r>   -5.4067    1.0000 </r>
       <r>   -5.4049    1.0000 </r>
       <r>   -5.4040    1.0000 </r>
       <r>   -5.4040    1.0000 </r>
       <r>   -5.4040    1.0000 </r>
       <r>   -5.4039    1.0000 </r>
       <r>   -5.4022    1.0000 </r>
       <r>   -5.4018    1.0000 </r>
       <r>   -5.4017    1.0000 </r>
       <r>   -5.4016    1.0000 </r>
       <r>   -5.4016    1.0000 </r>
       <r>   -5.4014    1.0000 </r>
       <r>   -5.4014    1.0000 </r>
       <r>   -5.4012    1.0000 </r>
       <r>   -5.4012    1.0000 </r>
       <r>   -5.4010    1.0000 </r>
       <r>   -5.4010    1.0000 </r>
       <r>   -5.4010    1.0000 </r>
       <r>   -5.4009    1.0000 </r>
       <r>   -5.4009    1.0000 </r>
       <r>   -5.4005    1.0000 </r>
       <r>   -5.4005    1.0000 </r>
       <r>   -5.4004    1.0000 </r>
       <r>   -5.4003    1.0000 </r>
       <r>   -5.4003    1.0000 </r>
       <r>   -5.3996    1.0000 </r>
       <r>   -5.3968    1.0000 </r>
       <r>   -5.3962    1.0000 </r>
       <r>   -5.3960    1.0000 </r>
       <r>   -5.3959    1.0000 </r>
       <r>   -5.3958    1.0000 </r>
       <r>   -5.3958    1.0000 </r>
       <r>   -5.3957    1.0000 </r>
       <r>   -5.3956    1.0000 </r>
       <r>   -5.3921    1.0000 </r>
       <r>   -5.3911    1.0000 </r>
       <r>   -5.3907    1.0000 </r>
       <r>   -5.3872    1.0000 </r>
       <r>   -5.3814    1.0000 </r>
       <r>   -5.3813    1.0000 </r>
       <r>   -5.3811    1.0000 </r>
       <r>   -5.3811    1.0000 </r>
       <r>   -5.3788    1.0000 </r>
       <r>   -5.3787    1.0000 </r>
       <r>   -5.3784    1.0000 </r>
       <r>   -5.3782    1.0000 </r>
       <r>   -5.3781    1.0000 </r>
       <r>   -5.3780    1.0000 </r>
       <r>   -5.3780    1.0000 </r>
       <r>   -5.3774    1.0000 </r>
       <r>   -5.3769    1.0000 </r>
       <r>   -5.3767    1.0000 </r>
       <r>   -5.3766    1.0000 </r>
       <r>   -5.3764    1.0000 </r>
       <r>   -5.3762    1.0000 </r>
       <r>   -5.3761    1.0000 </r>
       <r>   -5.3759    1.0000 </r>
       <r>   -5.3753    1.0000 </r>
       <r>   -5.3744    1.0000 </r>
       <r>   -5.3737    1.0000 </r>
       <r>   -5.3736    1.0000 </r>
       <r>   -5.3735    1.0000 </r>
       <r>   -5.3734    1.0000 </r>
       <r>   -5.3730    1.0000 </r>
       <r>   -5.3723    1.0000 </r>
       <r>   -5.3710    1.0000 </r>
       <r>   -5.3696    1.0000 </r>
       <r>   -5.3687    1.0000 </r>
       <r>   -5.3686    1.0000 </r>
       <r>   -5.3685    1.0000 </r>
       <r>   -5.3684    1.0000 </r>
       <r>   -5.3683    1.0000 </r>
       <r>   -5.3680    1.0000 </r>
       <r>   -5.3678    1.0000 </r>
       <r>   -5.3676    1.0000 </r>
       <r>   -5.3675    1.0000 </r>
       <r>   -5.3674    1.0000 </r>
       <r>   -5.3674    1.0000 </r>
       <r>   -5.3655    1.0000 </r>
       <r>   -5.3638    1.0000 </r>
       <r>   -5.3636    1.0000 </r>
       <r>   -5.3635    1.0000 </r>
       <r>   -5.3634    1.0000 </r>
       <r>   -5.3628    1.0000 </r>
       <r>   -5.3624    1.0000 </r>
       <r>   -5.3622    1.0000 </r>
       <r>   -5.3617    1.0000 </r>
       <r>   -5.3614    1.0000 </r>
       <r>   -5.3613    1.0000 </r>
       <r>   -5.3611    1.0000 </r>
       <r>   -5.3611    1.0000 </r>
       <r>   -5.3610    1.0000 </r>
       <r>   -5.3610    1.0000 </r>
       <r>   -5.3609    1.0000 </r>
       <r>   -5.3592    1.0000 </r>
       <r>   -5.3576    1.0000 </r>
       <r>   -5.3575    1.0000 </r>
       <r>   -5.3571    1.0000 </r>
       <r>   -5.3571    1.0000 </r>
       <r>   -5.3564    1.0000 </r>
       <r>   -5.3563    1.0000 </r>
       <r>   -5.3560    1.0000 </r>
       <r>   -5.3523    1.0000 </r>
       <r>   -5.3516    1.0000 </r>
       <r>   -5.3514    1.0000 </r>
       <r>   -5.3509    1.0000 </r>
       <r>   -5.3483    1.0000 </r>
       <r>   -5.3463    1.0000 </r>
       <r>   -5.3462    1.0000 </r>
       <r>   -5.3455    1.0000 </r>
       <r>   -5.3455    1.0000 </r>
       <r>   -5.3427    1.0000 </r>
       <r>   -5.3423    1.0000 </r>
       <r>   -5.3422    1.0000 </r>
       <r>   -5.3415    1.0000 </r>
       <r>   -5.3414    1.0000 </r>
       <r>   -5.3414    1.0000 </r>
       <r>   -5.3414    1.0000 </r>
       <r>   -5.3413    1.0000 </r>
       <r>   -5.3382    1.0000 </r>
       <r>   -5.3371    1.0000 </r>
       <r>   -5.3365    1.0000 </r>
       <r>   -5.3356    1.0000 </r>
       <r>   -5.3354    1.0000 </r>
       <r>   -5.3350    1.0000 </r>
       <r>   -5.3347    1.0000 </r>
       <r>   -5.3345    1.0000 </r>
       <r>   -5.3343    1.0000 </r>
       <r>   -5.3341    1.0000 </r>
       <r>   -5.3340    1.0000 </r>
       <r>   -5.3340    1.0000 </r>
       <r>   -5.3335    1.0000 </r>
       <r>   -5.3334    1.0000 </r>
       <r>   -5.3333    1.0000 </r>
       <r>   -5.3332    1.0000 </r>
       <r>   -5.3332    1.0000 </r>
       <r>   -5.3331    1.0000 </r>
       <r>   -5.3331    1.0000 </r>
       <r>   -5.3330    1.0000 </r>
       <r>   -5.3330    1.0000 </r>
       <r>   -5.3330    1.0000 </r>
       <r>   -5.3330    1.0000 </r>
       <r>   -5.3291    1.0000 </r>
       <r>   -5.3290    1.0000 </r>
       <r>   -5.3289    1.0000 </r>
       <r>   -5.3289    1.0000 </r>
       <r>   -5.3277    1.0000 </r>
       <r>   -5.3201    1.0000 </r>
       <r>   -5.3199    1.0000 </r>
       <r>   -5.3194    1.0000 </r>
       <r>   -5.3192    1.0000 </r>
       <r>   -5.3192    1.0000 </r>
       <r>   -5.3185    1.0000 </r>
       <r>   -5.3177    1.0000 </r>
       <r>   -5.3177    1.0000 </r>
       <r>   -5.3176    1.0000 </r>
       <r>   -5.3176    1.0000 </r>
       <r>   -5.3176    1.0000 </r>
       <r>   -5.3148    1.0000 </r>
       <r>   -5.3143    1.0000 </r>
       <r>   -5.3142    1.0000 </r>
       <r>   -5.3136    1.0000 </r>
       <r>   -5.3136    1.0000 </r>
       <r>   -5.3134    1.0000 </r>
       <r>   -5.3132    1.0000 </r>
       <r>   -5.3131    1.0000 </r>
       <r>   -5.3129    1.0000 </r>
       <r>   -5.3129    1.0000 </r>
       <r>   -5.3127    1.0000 </r>
       <r>   -5.3126    1.0000 </r>
       <r>   -5.3125    1.0000 </r>
       <r>   -5.3125    1.0000 </r>
       <r>   -5.3125    1.0000 </r>
       <r>   -5.3124    1.0000 </r>
       <r>   -5.3082    1.0000 </r>
       <r>   -5.3079    1.0000 </r>
       <r>   -5.3079    1.0000 </r>
       <r>   -5.3078    1.0000 </r>
       <r>   -5.3046    1.0000 </r>
       <r>   -5.3036    1.0000 </r>
       <r>   -5.3034    1.0000 </r>
       <r>   -5.3032    1.0000 </r>
       <r>   -5.3031    1.0000 </r>
       <r>   -5.2968    1.0000 </r>
       <r>   -5.2966    1.0000 </r>
       <r>   -5.2955    1.0000 </r>
       <r>   -5.2944    1.0000 </r>
       <r>   -5.2903    1.0000 </r>
       <r>   -5.2899    1.0000 </r>
       <r>   -5.2892    1.0000 </r>
       <r>   -5.2887    1.0000 </r>
       <r>   -5.2886    1.0000 </r>
       <r>   -5.2885    1.0000 </r>
       <r>   -5.2884    1.0000 </r>
       <r>   -5.2879    1.0000 </r>
       <r>   -5.2868    1.0000 </r>
       <r>   -5.2865    1.0000 </r>
       <r>   -5.2864    1.0000 </r>
       <r>   -5.2823    1.0000 </r>
       <r>   -5.2793    1.0000 </r>
       <r>   -5.2793    1.0000 </r>
       <r>   -5.2781    1.0000 </r>
       <r>   -5.2781    1.0000 </r>
       <r>   -5.2758    1.0000 </r>
       <r>   -5.2754    1.0000 </r>
       <r>   -5.2753    1.0000 </r>
       <r>   -5.2752    1.0000 </r>
       <r>   -5.2752    1.0000 </r>
       <r>   -5.2751    1.0000 </r>
       <r>   -5.2750    1.0000 </r>
       <r>   -5.2749    1.0000 </r>
       <r>   -5.2746    1.0000 </r>
       <r>   -5.2743    1.0000 </r>
       <r>   -5.2742    1.0000 </r>
       <r>   -5.2741    1.0000 </r>
       <r>   -5.2741    1.0000 </r>
       <r>   -5.2739    1.0000 </r>
       <r>   -5.2739    1.0000 </r>
       <r>   -5.2739    1.0000 </r>
       <r>   -5.2668    1.0000 </r>
       <r>   -5.2666    1.0000 </r>
       <r>   -5.2663    1.0000 </r>
       <r>   -5.2658    1.0000 </r>
       <r>   -5.2658    1.0000 </r>
       <r>   -5.2655    1.0000 </r>
       <r>   -5.2652    1.0000 </r>
       <r>   -5.2652    1.0000 </r>
       <r>   -5.2650    1.0000 </r>
       <r>   -5.2616    1.0000 </r>
       <r>   -5.2547    1.0000 </r>
       <r>   -5.2531    1.0000 </r>
       <r>   -5.2529    1.0000 </r>
       <r>   -5.2523    1.0000 </r>
       <r>   -5.2519    1.0000 </r>
       <r>   -5.2519    1.0000 </r>
       <r>   -5.2518    1.0000 </r>
       <r>   -5.2518    1.0000 </r>
       <r>   -5.2509    1.0000 </r>
       <r>   -5.2501    1.0000 </r>
       <r>   -5.2500    1.0000 </r>
       <r>   -5.2499    1.0000 </r>
       <r>   -5.2495    1.0000 </r>
       <r>   -5.2495    1.0000 </r>
       <r>   -5.2495    1.0000 </r>
       <r>   -5.2494    1.0000 </r>
       <r>   -5.2493    1.0000 </r>
       <r>   -5.2493    1.0000 </r>
       <r>   -5.2492    1.0000 </r>
       <r>   -5.2491    1.0000 </r>
       <r>   -5.2490    1.0000 </r>
       <r>   -5.2490    1.0000 </r>
       <r>   -5.2489    1.0000 </r>
       <r>   -5.2409    1.0000 </r>
       <r>   -5.2303    1.0000 </r>
       <r>   -5.2232    1.0000 </r>
       <r>   -5.2227    1.0000 </r>
       <r>   -5.2222    1.0000 </r>
       <r>   -5.2221    1.0000 </r>
       <r>   -5.2221    1.0000 </r>
       <r>   -5.2219    1.0000 </r>
       <r>   -5.2218    1.0000 </r>
       <r>   -5.2217    1.0000 </r>
       <r>   -5.2216    1.0000 </r>
       <r>   -5.2216    1.0000 </r>
       <r>   -5.2215    1.0000 </r>
       <r>   -5.2215    1.0000 </r>
       <r>   -5.2214    1.0000 </r>
       <r>   -5.2214    1.0000 </r>
       <r>   -5.2213    1.0000 </r>
       <r>   -5.2179    1.0000 </r>
       <r>   -5.2060    1.0000 </r>
       <r>   -5.2059    1.0000 </r>
       <r>   -5.2056    1.0000 </r>
       <r>   -5.2054    1.0000 </r>
       <r>   -5.2047    1.0000 </r>
       <r>   -5.2045    1.0000 </r>
       <r>   -5.2044    1.0000 </r>
       <r>   -5.2044    1.0000 </r>
       <r>   -5.2031    1.0000 </r>
       <r>   -5.2030    1.0000 </r>
       <r>   -5.2030    1.0000 </r>
       <r>   -5.2028    1.0000 </r>
       <r>   -5.2023    1.0000 </r>
       <r>   -5.2002    1.0000 </r>
       <r>   -5.1999    1.0000 </r>
       <r>   -5.1995    1.0000 </r>
       <r>   -5.1992    1.0000 </r>
       <r>   -5.1991    1.0000 </r>
       <r>   -5.1991    1.0000 </r>
       <r>   -5.1990    1.0000 </r>
       <r>   -5.1989    1.0000 </r>
       <r>   -5.1988    1.0000 </r>
       <r>   -5.1988    1.0000 </r>
       <r>   -5.1987    1.0000 </r>
       <r>   -5.1956    1.0000 </r>
       <r>   -5.1901    1.0000 </r>
       <r>   -5.1897    1.0000 </r>
       <r>   -5.1893    1.0000 </r>
       <r>   -5.1892    1.0000 </r>
       <r>   -5.1887    1.0000 </r>
       <r>   -5.1880    1.0000 </r>
       <r>   -5.1880    1.0000 </r>
       <r>   -5.1880    1.0000 </r>
       <r>   -5.1878    1.0000 </r>
       <r>   -5.1875    1.0000 </r>
       <r>   -5.1870    1.0000 </r>
       <r>   -5.1870    1.0000 </r>
       <r>   -5.1869    1.0000 </r>
       <r>   -5.1868    1.0000 </r>
       <r>   -5.1867    1.0000 </r>
       <r>   -5.1861    1.0000 </r>
       <r>   -5.1860    1.0000 </r>
       <r>   -5.1859    1.0000 </r>
       <r>   -5.1855    1.0000 </r>
       <r>   -5.1855    1.0000 </r>
       <r>   -5.1853    1.0000 </r>
       <r>   -5.1851    1.0000 </r>
       <r>   -5.1849    1.0000 </r>
       <r>   -5.1779    1.0000 </r>
       <r>   -5.1669    1.0000 </r>
       <r>   -5.1665    1.0000 </r>
       <r>   -5.1664    1.0000 </r>
       <r>   -5.1660    1.0000 </r>
       <r>   -5.1637    1.0000 </r>
       <r>   -5.1631    1.0000 </r>
       <r>   -5.1630    1.0000 </r>
       <r>   -5.1629    1.0000 </r>
       <r>   -5.1628    1.0000 </r>
       <r>   -5.1627    1.0000 </r>
       <r>   -5.1626    1.0000 </r>
       <r>   -5.1587    1.0000 </r>
       <r>   -5.1539    1.0000 </r>
       <r>   -5.1533    1.0000 </r>
       <r>   -5.1531    1.0000 </r>
       <r>   -5.1527    1.0000 </r>
       <r>   -5.1527    1.0000 </r>
       <r>   -5.1526    1.0000 </r>
       <r>   -5.1526    1.0000 </r>
       <r>   -5.1511    1.0000 </r>
       <r>   -5.1502    1.0000 </r>
       <r>   -5.1500    1.0000 </r>
       <r>   -5.1490    1.0000 </r>
       <r>   -5.1488    1.0000 </r>
       <r>   -5.1488    1.0000 </r>
       <r>   -5.1487    1.0000 </r>
       <r>   -5.1486    1.0000 </r>
       <r>   -5.1486    1.0000 </r>
       <r>   -5.1486    1.0000 </r>
       <r>   -5.1485    1.0000 </r>
       <r>   -5.1482    1.0000 </r>
       <r>   -5.1470    1.0000 </r>
       <r>   -5.1438    1.0000 </r>
       <r>   -5.1437    1.0000 </r>
       <r>   -5.1436    1.0000 </r>
       <r>   -5.1431    1.0000 </r>
       <r>   -5.1430    1.0000 </r>
       <r>   -5.1426    1.0000 </r>
       <r>   -5.1425    1.0000 </r>
       <r>   -5.1405    1.0000 </r>
       <r>   -5.1391    1.0000 </r>
       <r>   -5.1387    1.0000 </r>
       <r>   -5.1386    1.0000 </r>
       <r>   -5.1385    1.0000 </r>
       <r>   -5.1324    1.0000 </r>
       <r>   -5.1320    1.0000 </r>
       <r>   -5.1304    1.0000 </r>
       <r>   -5.1300    1.0000 </r>
       <r>   -5.1299    1.0000 </r>
       <r>   -5.1296    1.0000 </r>
       <r>   -5.1295    1.0000 </r>
       <r>   -5.1293    1.0000 </r>
       <r>   -5.1266    1.0000 </r>
       <r>   -5.1262    1.0000 </r>
       <r>   -5.1252    1.0000 </r>
       <r>   -5.1250    1.0000 </r>
       <r>   -5.1249    1.0000 </r>
       <r>   -5.1248    1.0000 </r>
       <r>   -5.1247    1.0000 </r>
       <r>   -5.1242    1.0000 </r>
       <r>   -5.1238    1.0000 </r>
       <r>   -5.1234    1.0000 </r>
       <r>   -5.1231    1.0000 </r>
       <r>   -5.1229    1.0000 </r>
       <r>   -5.1229    1.0000 </r>
       <r>   -5.1228    1.0000 </r>
       <r>   -5.1227    1.0000 </r>
       <r>   -5.1198    1.0000 </r>
       <r>   -5.1152    1.0000 </r>
       <r>   -5.1149    1.0000 </r>
       <r>   -5.1149    1.0000 </r>
       <r>   -5.1147    1.0000 </r>
       <r>   -5.1147    1.0000 </r>
       <r>   -5.1147    1.0000 </r>
       <r>   -5.1146    1.0000 </r>
       <r>   -5.1146    1.0000 </r>
       <r>   -5.1145    1.0000 </r>
       <r>   -5.1144    1.0000 </r>
       <r>   -5.1144    1.0000 </r>
       <r>   -5.1143    1.0000 </r>
       <r>   -5.1140    1.0000 </r>
       <r>   -5.1140    1.0000 </r>
       <r>   -5.1137    1.0000 </r>
       <r>   -5.1037    1.0000 </r>
       <r>   -5.0953    1.0000 </r>
       <r>   -5.0948    1.0000 </r>
       <r>   -5.0947    1.0000 </r>
       <r>   -5.0945    1.0000 </r>
       <r>   -5.0938    1.0000 </r>
       <r>   -5.0937    1.0000 </r>
       <r>   -5.0926    1.0000 </r>
       <r>   -5.0923    1.0000 </r>
       <r>   -5.0882    1.0000 </r>
       <r>   -5.0881    1.0000 </r>
       <r>   -5.0881    1.0000 </r>
       <r>   -5.0881    1.0000 </r>
       <r>   -5.0881    1.0000 </r>
       <r>   -5.0880    1.0000 </r>
       <r>   -5.0880    1.0000 </r>
       <r>   -5.0861    1.0000 </r>
       <r>   -5.0723    1.0000 </r>
       <r>   -5.0718    1.0000 </r>
       <r>   -5.0717    1.0000 </r>
       <r>   -5.0707    1.0000 </r>
       <r>   -5.0630    1.0000 </r>
       <r>   -5.0616    1.0000 </r>
       <r>   -5.0614    1.0000 </r>
       <r>   -5.0614    1.0000 </r>
       <r>   -5.0612    1.0000 </r>
       <r>   -5.0612    1.0000 </r>
       <r>   -5.0611    1.0000 </r>
       <r>   -5.0599    1.0000 </r>
       <r>   -5.0578    1.0000 </r>
       <r>   -5.0576    1.0000 </r>
       <r>   -5.0575    1.0000 </r>
       <r>   -5.0574    1.0000 </r>
       <r>   -5.0572    1.0000 </r>
       <r>   -5.0572    1.0000 </r>
       <r>   -5.0571    1.0000 </r>
       <r>   -5.0571    1.0000 </r>
       <r>   -5.0570    1.0000 </r>
       <r>   -5.0556    1.0000 </r>
       <r>   -5.0550    1.0000 </r>
       <r>   -5.0525    1.0000 </r>
       <r>   -5.0485    1.0000 </r>
       <r>   -5.0483    1.0000 </r>
       <r>   -5.0481    1.0000 </r>
       <r>   -5.0480    1.0000 </r>
       <r>   -5.0480    1.0000 </r>
       <r>   -5.0478    1.0000 </r>
       <r>   -5.0476    1.0000 </r>
       <r>   -5.0475    1.0000 </r>
       <r>   -5.0463    1.0000 </r>
       <r>   -5.0461    1.0000 </r>
       <r>   -5.0459    1.0000 </r>
       <r>   -5.0459    1.0000 </r>
       <r>   -5.0458    1.0000 </r>
       <r>   -5.0457    1.0000 </r>
       <r>   -5.0456    1.0000 </r>
       <r>   -5.0455    1.0000 </r>
       <r>   -5.0454    1.0000 </r>
       <r>   -5.0453    1.0000 </r>
       <r>   -5.0451    1.0000 </r>
       <r>   -5.0416    1.0000 </r>
       <r>   -5.0385    1.0000 </r>
       <r>   -5.0379    1.0000 </r>
       <r>   -5.0376    1.0000 </r>
       <r>   -5.0354    1.0000 </r>
       <r>   -5.0309    1.0000 </r>
       <r>   -5.0307    1.0000 </r>
       <r>   -5.0302    1.0000 </r>
       <r>   -5.0297    1.0000 </r>
       <r>   -5.0297    1.0000 </r>
       <r>   -5.0297    1.0000 </r>
       <r>   -5.0295    1.0000 </r>
       <r>   -5.0291    1.0000 </r>
       <r>   -5.0280    1.0000 </r>
       <r>   -5.0278    1.0000 </r>
       <r>   -5.0278    1.0000 </r>
       <r>   -5.0277    1.0000 </r>
       <r>   -5.0276    1.0000 </r>
       <r>   -5.0276    1.0000 </r>
       <r>   -5.0275    1.0000 </r>
       <r>   -5.0268    1.0000 </r>
       <r>   -5.0247    1.0000 </r>
       <r>   -5.0245    1.0000 </r>
       <r>   -5.0243    1.0000 </r>
       <r>   -5.0239    1.0000 </r>
       <r>   -5.0238    1.0000 </r>
       <r>   -5.0237    1.0000 </r>
       <r>   -5.0237    1.0000 </r>
       <r>   -5.0229    1.0000 </r>
       <r>   -5.0220    1.0000 </r>
       <r>   -5.0219    1.0000 </r>
       <r>   -5.0214    1.0000 </r>
       <r>   -5.0166    1.0000 </r>
       <r>   -5.0141    1.0000 </r>
       <r>   -5.0138    1.0000 </r>
       <r>   -5.0138    1.0000 </r>
       <r>   -5.0137    1.0000 </r>
       <r>   -5.0134    1.0000 </r>
       <r>   -5.0134    1.0000 </r>
       <r>   -5.0133    1.0000 </r>
       <r>   -5.0132    1.0000 </r>
       <r>   -5.0081    1.0000 </r>
       <r>   -5.0076    1.0000 </r>
       <r>   -5.0076    1.0000 </r>
       <r>   -5.0074    1.0000 </r>
       <r>   -5.0059    1.0000 </r>
       <r>   -5.0058    1.0000 </r>
       <r>   -5.0058    1.0000 </r>
       <r>   -5.0056    1.0000 </r>
       <r>   -5.0056    1.0000 </r>
       <r>   -5.0055    1.0000 </r>
       <r>   -5.0055    1.0000 </r>
       <r>   -5.0055    1.0000 </r>
       <r>   -5.0055    1.0000 </r>
       <r>   -5.0054    1.0000 </r>
       <r>   -5.0054    1.0000 </r>
       <r>   -5.0044    1.0000 </r>
       <r>   -5.0004    1.0000 </r>
       <r>   -4.9984    1.0000 </r>
       <r>   -4.9981    1.0000 </r>
       <r>   -4.9973    1.0000 </r>
       <r>   -4.9972    1.0000 </r>
       <r>   -4.9971    1.0000 </r>
       <r>   -4.9971    1.0000 </r>
       <r>   -4.9954    1.0000 </r>
       <r>   -4.9900    1.0000 </r>
       <r>   -4.9888    1.0000 </r>
       <r>   -4.9884    1.0000 </r>
       <r>   -4.9882    1.0000 </r>
       <r>   -4.9878    1.0000 </r>
       <r>   -4.9877    1.0000 </r>
       <r>   -4.9876    1.0000 </r>
       <r>   -4.9866    1.0000 </r>
       <r>   -4.9857    1.0000 </r>
       <r>   -4.9853    1.0000 </r>
       <r>   -4.9850    1.0000 </r>
       <r>   -4.9848    1.0000 </r>
       <r>   -4.9847    1.0000 </r>
       <r>   -4.9842    1.0000 </r>
       <r>   -4.9842    1.0000 </r>
       <r>   -4.9838    1.0000 </r>
       <r>   -4.9837    1.0000 </r>
       <r>   -4.9836    1.0000 </r>
       <r>   -4.9835    1.0000 </r>
       <r>   -4.9770    1.0000 </r>
       <r>   -4.9762    1.0000 </r>
       <r>   -4.9755    1.0000 </r>
       <r>   -4.9754    1.0000 </r>
       <r>   -4.9753    1.0000 </r>
       <r>   -4.9752    1.0000 </r>
       <r>   -4.9751    1.0000 </r>
       <r>   -4.9750    1.0000 </r>
       <r>   -4.9749    1.0000 </r>
       <r>   -4.9748    1.0000 </r>
       <r>   -4.9748    1.0000 </r>
       <r>   -4.9748    1.0000 </r>
       <r>   -4.9745    1.0000 </r>
       <r>   -4.9735    1.0000 </r>
       <r>   -4.9735    1.0000 </r>
       <r>   -4.9733    1.0000 </r>
       <r>   -4.9730    1.0000 </r>
       <r>   -4.9720    1.0000 </r>
       <r>   -4.9719    1.0000 </r>
       <r>   -4.9719    1.0000 </r>
       <r>   -4.9691    1.0000 </r>
       <r>   -4.9683    1.0000 </r>
       <r>   -4.9682    1.0000 </r>
       <r>   -4.9681    1.0000 </r>
       <r>   -4.9679    1.0000 </r>
       <r>   -4.9672    1.0000 </r>
       <r>   -4.9671    1.0000 </r>
       <r>   -4.9670    1.0000 </r>
       <r>   -4.9669    1.0000 </r>
       <r>   -4.9656    1.0000 </r>
       <r>   -4.9655    1.0000 </r>
       <r>   -4.9653    1.0000 </r>
       <r>   -4.9653    1.0000 </r>
       <r>   -4.9630    1.0000 </r>
       <r>   -4.9591    1.0000 </r>
       <r>   -4.9591    1.0000 </r>
       <r>   -4.9590    1.0000 </r>
       <r>   -4.9587    1.0000 </r>
       <r>   -4.9584    1.0000 </r>
       <r>   -4.9582    1.0000 </r>
       <r>   -4.9578    1.0000 </r>
       <r>   -4.9576    1.0000 </r>
       <r>   -4.9575    1.0000 </r>
       <r>   -4.9574    1.0000 </r>
       <r>   -4.9574    1.0000 </r>
       <r>   -4.9543    1.0000 </r>
       <r>   -4.9518    1.0000 </r>
       <r>   -4.9494    1.0000 </r>
       <r>   -4.9486    1.0000 </r>
       <r>   -4.9483    1.0000 </r>
       <r>   -4.9466    1.0000 </r>
       <r>   -4.9444    1.0000 </r>
       <r>   -4.9441    1.0000 </r>
       <r>   -4.9439    1.0000 </r>
       <r>   -4.9439    1.0000 </r>
       <r>   -4.9438    1.0000 </r>
       <r>   -4.9438    1.0000 </r>
       <r>   -4.9437    1.0000 </r>
       <r>   -4.9435    1.0000 </r>
       <r>   -4.9435    1.0000 </r>
       <r>   -4.9435    1.0000 </r>
       <r>   -4.9433    1.0000 </r>
       <r>   -4.9433    1.0000 </r>
       <r>   -4.9432    1.0000 </r>
       <r>   -4.9432    1.0000 </r>
       <r>   -4.9432    1.0000 </r>
       <r>   -4.9426    1.0000 </r>
       <r>   -4.9425    1.0000 </r>
       <r>   -4.9425    1.0000 </r>
       <r>   -4.9423    1.0000 </r>
       <r>   -4.9414    1.0000 </r>
       <r>   -4.9382    1.0000 </r>
       <r>   -4.9380    1.0000 </r>
       <r>   -4.9380    1.0000 </r>
       <r>   -4.9376    1.0000 </r>
       <r>   -4.9350    1.0000 </r>
       <r>   -4.9349    1.0000 </r>
       <r>   -4.9345    1.0000 </r>
       <r>   -4.9334    1.0000 </r>
       <r>   -4.9329    1.0000 </r>
       <r>   -4.9327    1.0000 </r>
       <r>   -4.9326    1.0000 </r>
       <r>   -4.9325    1.0000 </r>
       <r>   -4.9325    1.0000 </r>
       <r>   -4.9325    1.0000 </r>
       <r>   -4.9324    1.0000 </r>
       <r>   -4.9307    1.0000 </r>
       <r>   -4.9305    1.0000 </r>
       <r>   -4.9305    1.0000 </r>
       <r>   -4.9305    1.0000 </r>
       <r>   -4.9290    1.0000 </r>
       <r>   -4.9274    1.0000 </r>
       <r>   -4.9273    1.0000 </r>
       <r>   -4.9269    1.0000 </r>
       <r>   -4.9268    1.0000 </r>
       <r>   -4.9186    1.0000 </r>
       <r>   -4.9178    1.0000 </r>
       <r>   -4.9172    1.0000 </r>
       <r>   -4.9168    1.0000 </r>
       <r>   -4.9167    1.0000 </r>
       <r>   -4.9165    1.0000 </r>
       <r>   -4.9162    1.0000 </r>
       <r>   -4.9130    1.0000 </r>
       <r>   -4.9130    1.0000 </r>
       <r>   -4.9127    1.0000 </r>
       <r>   -4.9126    1.0000 </r>
       <r>   -4.9089    1.0000 </r>
       <r>   -4.9074    1.0000 </r>
       <r>   -4.9041    1.0000 </r>
       <r>   -4.9040    1.0000 </r>
       <r>   -4.9040    1.0000 </r>
       <r>   -4.9040    1.0000 </r>
       <r>   -4.9021    1.0000 </r>
       <r>   -4.9020    1.0000 </r>
       <r>   -4.9017    1.0000 </r>
       <r>   -4.9010    1.0000 </r>
       <r>   -4.9008    1.0000 </r>
       <r>   -4.9006    1.0000 </r>
       <r>   -4.9006    1.0000 </r>
       <r>   -4.9004    1.0000 </r>
       <r>   -4.8946    1.0000 </r>
       <r>   -4.8938    1.0000 </r>
       <r>   -4.8938    1.0000 </r>
       <r>   -4.8920    1.0000 </r>
       <r>   -4.8899    1.0000 </r>
       <r>   -4.8894    1.0000 </r>
       <r>   -4.8893    1.0000 </r>
       <r>   -4.8892    1.0000 </r>
       <r>   -4.8890    1.0000 </r>
       <r>   -4.8889    1.0000 </r>
       <r>   -4.8887    1.0000 </r>
       <r>   -4.8872    1.0000 </r>
       <r>   -4.8812    1.0000 </r>
       <r>   -4.8810    1.0000 </r>
       <r>   -4.8810    1.0000 </r>
       <r>   -4.8809    1.0000 </r>
       <r>   -4.8809    1.0000 </r>
       <r>   -4.8809    1.0000 </r>
       <r>   -4.8808    1.0000 </r>
       <r>   -4.8808    1.0000 </r>
       <r>   -4.8756    1.0000 </r>
       <r>   -4.8755    1.0000 </r>
       <r>   -4.8754    1.0000 </r>
       <r>   -4.8754    1.0000 </r>
       <r>   -4.8720    1.0000 </r>
       <r>   -4.8718    1.0000 </r>
       <r>   -4.8717    1.0000 </r>
       <r>   -4.8717    1.0000 </r>
       <r>   -4.8716    1.0000 </r>
       <r>   -4.8716    1.0000 </r>
       <r>   -4.8715    1.0000 </r>
       <r>   -4.8712    1.0000 </r>
       <r>   -4.8686    1.0000 </r>
       <r>   -4.8685    1.0000 </r>
       <r>   -4.8684    1.0000 </r>
       <r>   -4.8683    1.0000 </r>
       <r>   -4.8683    1.0000 </r>
       <r>   -4.8683    1.0000 </r>
       <r>   -4.8682    1.0000 </r>
       <r>   -4.8670    1.0000 </r>
       <r>   -4.8617    1.0000 </r>
       <r>   -4.8614    1.0000 </r>
       <r>   -4.8612    1.0000 </r>
       <r>   -4.8610    1.0000 </r>
       <r>   -4.8606    1.0000 </r>
       <r>   -4.8604    1.0000 </r>
       <r>   -4.8603    1.0000 </r>
       <r>   -4.8603    1.0000 </r>
       <r>   -4.8598    1.0000 </r>
       <r>   -4.8598    1.0000 </r>
       <r>   -4.8598    1.0000 </r>
       <r>   -4.8590    1.0000 </r>
       <r>   -4.8590    1.0000 </r>
       <r>   -4.8590    1.0000 </r>
       <r>   -4.8589    1.0000 </r>
       <r>   -4.8589    1.0000 </r>
       <r>   -4.8588    1.0000 </r>
       <r>   -4.8588    1.0000 </r>
       <r>   -4.8587    1.0000 </r>
       <r>   -4.8566    1.0000 </r>
       <r>   -4.8535    1.0000 </r>
       <r>   -4.8534    1.0000 </r>
       <r>   -4.8533    1.0000 </r>
       <r>   -4.8532    1.0000 </r>
       <r>   -4.8469    1.0000 </r>
       <r>   -4.8468    1.0000 </r>
       <r>   -4.8465    1.0000 </r>
       <r>   -4.8465    1.0000 </r>
       <r>   -4.8443    1.0000 </r>
       <r>   -4.8440    1.0000 </r>
       <r>   -4.8437    1.0000 </r>
       <r>   -4.8437    1.0000 </r>
       <r>   -4.8436    1.0000 </r>
       <r>   -4.8435    1.0000 </r>
       <r>   -4.8435    1.0000 </r>
       <r>   -4.8435    1.0000 </r>
       <r>   -4.8434    1.0000 </r>
       <r>   -4.8434    1.0000 </r>
       <r>   -4.8433    1.0000 </r>
       <r>   -4.8432    1.0000 </r>
       <r>   -4.8431    1.0000 </r>
       <r>   -4.8431    1.0000 </r>
       <r>   -4.8431    1.0000 </r>
       <r>   -4.8422    1.0000 </r>
       <r>   -4.8422    1.0000 </r>
       <r>   -4.8421    1.0000 </r>
       <r>   -4.8421    1.0000 </r>
       <r>   -4.8420    1.0000 </r>
       <r>   -4.8419    1.0000 </r>
       <r>   -4.8419    1.0000 </r>
       <r>   -4.8418    1.0000 </r>
       <r>   -4.8418    1.0000 </r>
       <r>   -4.8405    1.0000 </r>
       <r>   -4.8403    1.0000 </r>
       <r>   -4.8401    1.0000 </r>
       <r>   -4.8401    1.0000 </r>
       <r>   -4.8401    1.0000 </r>
       <r>   -4.8399    1.0000 </r>
       <r>   -4.8397    1.0000 </r>
       <r>   -4.8393    1.0000 </r>
       <r>   -4.8346    1.0000 </r>
       <r>   -4.8345    1.0000 </r>
       <r>   -4.8341    1.0000 </r>
       <r>   -4.8314    1.0000 </r>
       <r>   -4.8296    1.0000 </r>
       <r>   -4.8296    1.0000 </r>
       <r>   -4.8295    1.0000 </r>
       <r>   -4.8294    1.0000 </r>
       <r>   -4.8293    1.0000 </r>
       <r>   -4.8293    1.0000 </r>
       <r>   -4.8293    1.0000 </r>
       <r>   -4.8292    1.0000 </r>
       <r>   -4.8284    1.0000 </r>
       <r>   -4.8282    1.0000 </r>
       <r>   -4.8277    1.0000 </r>
       <r>   -4.8274    1.0000 </r>
       <r>   -4.8227    1.0000 </r>
       <r>   -4.8223    1.0000 </r>
       <r>   -4.8217    1.0000 </r>
       <r>   -4.8217    1.0000 </r>
       <r>   -4.8212    1.0000 </r>
       <r>   -4.8211    1.0000 </r>
       <r>   -4.8210    1.0000 </r>
       <r>   -4.8210    1.0000 </r>
       <r>   -4.8209    1.0000 </r>
       <r>   -4.8208    1.0000 </r>
       <r>   -4.8208    1.0000 </r>
       <r>   -4.8207    1.0000 </r>
       <r>   -4.8178    1.0000 </r>
       <r>   -4.8176    1.0000 </r>
       <r>   -4.8174    1.0000 </r>
       <r>   -4.8169    1.0000 </r>
       <r>   -4.8168    1.0000 </r>
       <r>   -4.8161    1.0000 </r>
       <r>   -4.8159    1.0000 </r>
       <r>   -4.8159    1.0000 </r>
       <r>   -4.8155    1.0000 </r>
       <r>   -4.8141    1.0000 </r>
       <r>   -4.8141    1.0000 </r>
       <r>   -4.8140    1.0000 </r>
       <r>   -4.8139    1.0000 </r>
       <r>   -4.8138    1.0000 </r>
       <r>   -4.8137    1.0000 </r>
       <r>   -4.8136    1.0000 </r>
       <r>   -4.8135    1.0000 </r>
       <r>   -4.8134    1.0000 </r>
       <r>   -4.8130    1.0000 </r>
       <r>   -4.8112    1.0000 </r>
       <r>   -4.8109    1.0000 </r>
       <r>   -4.8109    1.0000 </r>
       <r>   -4.8108    1.0000 </r>
       <r>   -4.8106    1.0000 </r>
       <r>   -4.8105    1.0000 </r>
       <r>   -4.8105    1.0000 </r>
       <r>   -4.8104    1.0000 </r>
       <r>   -4.8103    1.0000 </r>
       <r>   -4.8083    1.0000 </r>
       <r>   -4.8054    1.0000 </r>
       <r>   -4.8036    1.0000 </r>
       <r>   -4.8034    1.0000 </r>
       <r>   -4.8029    1.0000 </r>
       <r>   -4.8029    1.0000 </r>
       <r>   -4.8028    1.0000 </r>
       <r>   -4.8027    1.0000 </r>
       <r>   -4.8023    1.0000 </r>
       <r>   -4.8022    1.0000 </r>
       <r>   -4.8022    1.0000 </r>
       <r>   -4.8021    1.0000 </r>
       <r>   -4.8012    1.0000 </r>
       <r>   -4.8011    1.0000 </r>
       <r>   -4.8010    1.0000 </r>
       <r>   -4.8008    1.0000 </r>
       <r>   -4.8006    1.0000 </r>
       <r>   -4.8005    1.0000 </r>
       <r>   -4.8005    1.0000 </r>
       <r>   -4.8005    1.0000 </r>
       <r>   -4.7992    1.0000 </r>
       <r>   -4.7955    1.0000 </r>
       <r>   -4.7955    1.0000 </r>
       <r>   -4.7950    1.0000 </r>
       <r>   -4.7949    1.0000 </r>
       <r>   -4.7947    1.0000 </r>
       <r>   -4.7946    1.0000 </r>
       <r>   -4.7945    1.0000 </r>
       <r>   -4.7945    1.0000 </r>
       <r>   -4.7944    1.0000 </r>
       <r>   -4.7944    1.0000 </r>
       <r>   -4.7941    1.0000 </r>
       <r>   -4.7937    1.0000 </r>
       <r>   -4.7937    1.0000 </r>
       <r>   -4.7935    1.0000 </r>
       <r>   -4.7931    1.0000 </r>
       <r>   -4.7905    1.0000 </r>
       <r>   -4.7901    1.0000 </r>
       <r>   -4.7899    1.0000 </r>
       <r>   -4.7898    1.0000 </r>
       <r>   -4.7894    1.0000 </r>
       <r>   -4.7894    1.0000 </r>
       <r>   -4.7894    1.0000 </r>
       <r>   -4.7893    1.0000 </r>
       <r>   -4.7869    1.0000 </r>
       <r>   -4.7861    1.0000 </r>
       <r>   -4.7860    1.0000 </r>
       <r>   -4.7860    1.0000 </r>
       <r>   -4.7858    1.0000 </r>
       <r>   -4.7858    1.0000 </r>
       <r>   -4.7858    1.0000 </r>
       <r>   -4.7858    1.0000 </r>
       <r>   -4.7856    1.0000 </r>
       <r>   -4.7854    1.0000 </r>
       <r>   -4.7852    1.0000 </r>
       <r>   -4.7850    1.0000 </r>
       <r>   -4.7850    1.0000 </r>
       <r>   -4.7849    1.0000 </r>
       <r>   -4.7848    1.0000 </r>
       <r>   -4.7848    1.0000 </r>
       <r>   -4.7848    1.0000 </r>
       <r>   -4.7848    1.0000 </r>
       <r>   -4.7842    1.0000 </r>
       <r>   -4.7841    1.0000 </r>
       <r>   -4.7840    1.0000 </r>
       <r>   -4.7832    1.0000 </r>
       <r>   -4.7829    1.0000 </r>
       <r>   -4.7829    1.0000 </r>
       <r>   -4.7824    1.0000 </r>
       <r>   -4.7823    1.0000 </r>
       <r>   -4.7821    1.0000 </r>
       <r>   -4.7818    1.0000 </r>
       <r>   -4.7817    1.0000 </r>
       <r>   -4.7816    1.0000 </r>
       <r>   -4.7816    1.0000 </r>
       <r>   -4.7815    1.0000 </r>
       <r>   -4.7813    1.0000 </r>
       <r>   -4.7812    1.0000 </r>
       <r>   -4.7812    1.0000 </r>
       <r>   -4.7809    1.0000 </r>
       <r>   -4.7808    1.0000 </r>
       <r>   -4.7807    1.0000 </r>
       <r>   -4.7807    1.0000 </r>
       <r>   -4.7804    1.0000 </r>
       <r>   -4.7804    1.0000 </r>
       <r>   -4.7802    1.0000 </r>
       <r>   -4.7796    1.0000 </r>
       <r>   -4.7793    1.0000 </r>
       <r>   -4.7777    1.0000 </r>
       <r>   -4.7777    1.0000 </r>
       <r>   -4.7776    1.0000 </r>
       <r>   -4.7776    1.0000 </r>
       <r>   -4.7744    1.0000 </r>
       <r>   -4.7712    1.0000 </r>
       <r>   -4.7704    1.0000 </r>
       <r>   -4.7702    1.0000 </r>
       <r>   -4.7701    1.0000 </r>
       <r>   -4.7700    1.0000 </r>
       <r>   -4.7698    1.0000 </r>
       <r>   -4.7698    1.0000 </r>
       <r>   -4.7673    1.0000 </r>
       <r>   -4.7672    1.0000 </r>
       <r>   -4.7670    1.0000 </r>
       <r>   -4.7670    1.0000 </r>
       <r>   -4.7647    1.0000 </r>
       <r>   -4.7642    1.0000 </r>
       <r>   -4.7636    1.0000 </r>
       <r>   -4.7634    1.0000 </r>
       <r>   -4.7634    1.0000 </r>
       <r>   -4.7632    1.0000 </r>
       <r>   -4.7629    1.0000 </r>
       <r>   -4.7629    1.0000 </r>
       <r>   -4.7627    1.0000 </r>
       <r>   -4.7627    1.0000 </r>
       <r>   -4.7625    1.0000 </r>
       <r>   -4.7625    1.0000 </r>
       <r>   -4.7608    1.0000 </r>
       <r>   -4.7607    1.0000 </r>
       <r>   -4.7602    1.0000 </r>
       <r>   -4.7595    1.0000 </r>
       <r>   -4.7594    1.0000 </r>
       <r>   -4.7592    1.0000 </r>
       <r>   -4.7589    1.0000 </r>
       <r>   -4.7588    1.0000 </r>
       <r>   -4.7588    1.0000 </r>
       <r>   -4.7587    1.0000 </r>
       <r>   -4.7587    1.0000 </r>
       <r>   -4.7587    1.0000 </r>
       <r>   -4.7586    1.0000 </r>
       <r>   -4.7584    1.0000 </r>
       <r>   -4.7581    1.0000 </r>
       <r>   -4.7581    1.0000 </r>
       <r>   -4.7580    1.0000 </r>
       <r>   -4.7576    1.0000 </r>
       <r>   -4.7574    1.0000 </r>
       <r>   -4.7574    1.0000 </r>
       <r>   -4.7523    1.0000 </r>
       <r>   -4.7520    1.0000 </r>
       <r>   -4.7513    1.0000 </r>
       <r>   -4.7511    1.0000 </r>
       <r>   -4.7511    1.0000 </r>
       <r>   -4.7508    1.0000 </r>
       <r>   -4.7505    1.0000 </r>
       <r>   -4.7454    1.0000 </r>
       <r>   -4.7451    1.0000 </r>
       <r>   -4.7449    1.0000 </r>
       <r>   -4.7445    1.0000 </r>
       <r>   -4.7443    1.0000 </r>
       <r>   -4.7443    1.0000 </r>
       <r>   -4.7443    1.0000 </r>
       <r>   -4.7413    1.0000 </r>
       <r>   -4.7383    1.0000 </r>
       <r>   -4.7381    1.0000 </r>
       <r>   -4.7380    1.0000 </r>
       <r>   -4.7380    1.0000 </r>
       <r>   -4.7379    1.0000 </r>
       <r>   -4.7378    1.0000 </r>
       <r>   -4.7378    1.0000 </r>
       <r>   -4.7377    1.0000 </r>
       <r>   -4.7303    1.0000 </r>
       <r>   -4.7302    1.0000 </r>
       <r>   -4.7302    1.0000 </r>
       <r>   -4.7300    1.0000 </r>
       <r>   -4.7273    1.0000 </r>
       <r>   -4.7270    1.0000 </r>
       <r>   -4.7270    1.0000 </r>
       <r>   -4.7253    1.0000 </r>
       <r>   -4.7183    1.0000 </r>
       <r>   -4.7182    1.0000 </r>
       <r>   -4.7161    1.0000 </r>
       <r>   -4.7161    1.0000 </r>
       <r>   -4.7160    1.0000 </r>
       <r>   -4.7159    1.0000 </r>
       <r>   -4.7108    1.0000 </r>
       <r>   -4.7107    1.0000 </r>
       <r>   -4.7107    1.0000 </r>
       <r>   -4.7107    1.0000 </r>
       <r>   -4.7062    1.0000 </r>
       <r>   -4.7058    1.0000 </r>
       <r>   -4.7056    1.0000 </r>
       <r>   -4.7055    1.0000 </r>
       <r>   -4.7054    1.0000 </r>
       <r>   -4.7053    1.0000 </r>
       <r>   -4.7053    1.0000 </r>
       <r>   -4.7052    1.0000 </r>
       <r>   -4.7051    1.0000 </r>
       <r>   -4.7051    1.0000 </r>
       <r>   -4.7050    1.0000 </r>
       <r>   -4.7048    1.0000 </r>
       <r>   -4.7047    1.0000 </r>
       <r>   -4.7046    1.0000 </r>
       <r>   -4.7046    1.0000 </r>
       <r>   -4.7021    1.0000 </r>
       <r>   -4.7014    1.0000 </r>
       <r>   -4.7014    1.0000 </r>
       <r>   -4.7013    1.0000 </r>
       <r>   -4.7006    1.0000 </r>
       <r>   -4.7005    1.0000 </r>
       <r>   -4.7005    1.0000 </r>
       <r>   -4.7004    1.0000 </r>
       <r>   -4.7000    1.0000 </r>
       <r>   -4.6992    1.0000 </r>
       <r>   -4.6974    1.0000 </r>
       <r>   -4.6974    1.0000 </r>
       <r>   -4.6966    1.0000 </r>
       <r>   -4.6963    1.0000 </r>
       <r>   -4.6961    1.0000 </r>
       <r>   -4.6960    1.0000 </r>
       <r>   -4.6948    1.0000 </r>
       <r>   -4.6856    1.0000 </r>
       <r>   -4.6807    1.0000 </r>
       <r>   -4.6806    1.0000 </r>
       <r>   -4.6802    1.0000 </r>
       <r>   -4.6801    1.0000 </r>
       <r>   -4.6724    1.0000 </r>
       <r>   -4.6672    1.0000 </r>
       <r>   -4.6667    1.0000 </r>
       <r>   -4.6667    1.0000 </r>
       <r>   -4.6665    1.0000 </r>
       <r>   -4.6602    1.0000 </r>
       <r>   -4.6599    1.0000 </r>
       <r>   -4.6593    1.0000 </r>
       <r>   -4.6590    1.0000 </r>
       <r>   -4.6588    1.0000 </r>
       <r>   -4.6588    1.0000 </r>
       <r>   -4.6586    1.0000 </r>
       <r>   -4.6586    1.0000 </r>
       <r>   -4.6566    1.0000 </r>
       <r>   -4.6566    1.0000 </r>
       <r>   -4.6565    1.0000 </r>
       <r>   -4.6561    1.0000 </r>
       <r>   -4.6557    1.0000 </r>
       <r>   -4.6556    1.0000 </r>
       <r>   -4.6555    1.0000 </r>
       <r>   -4.6551    1.0000 </r>
       <r>   -4.6513    1.0000 </r>
       <r>   -4.6511    1.0000 </r>
       <r>   -4.6510    1.0000 </r>
       <r>   -4.6510    1.0000 </r>
       <r>   -4.6508    1.0000 </r>
       <r>   -4.6505    1.0000 </r>
       <r>   -4.6505    1.0000 </r>
       <r>   -4.6504    1.0000 </r>
       <r>   -4.6499    1.0000 </r>
       <r>   -4.6497    1.0000 </r>
       <r>   -4.6496    1.0000 </r>
       <r>   -4.6493    1.0000 </r>
       <r>   -4.6491    1.0000 </r>
       <r>   -4.6491    1.0000 </r>
       <r>   -4.6489    1.0000 </r>
       <r>   -4.6489    1.0000 </r>
       <r>   -4.6423    1.0000 </r>
       <r>   -4.6423    1.0000 </r>
       <r>   -4.6419    1.0000 </r>
       <r>   -4.6413    1.0000 </r>
       <r>   -4.6412    1.0000 </r>
       <r>   -4.6411    1.0000 </r>
       <r>   -4.6411    1.0000 </r>
       <r>   -4.6411    1.0000 </r>
       <r>   -4.6383    1.0000 </r>
       <r>   -4.6371    1.0000 </r>
       <r>   -4.6369    1.0000 </r>
       <r>   -4.6367    1.0000 </r>
       <r>   -4.6361    1.0000 </r>
       <r>   -4.6360    1.0000 </r>
       <r>   -4.6360    1.0000 </r>
       <r>   -4.6360    1.0000 </r>
       <r>   -4.6349    1.0000 </r>
       <r>   -4.6296    1.0000 </r>
       <r>   -4.6286    1.0000 </r>
       <r>   -4.6282    1.0000 </r>
       <r>   -4.6282    1.0000 </r>
       <r>   -4.6281    1.0000 </r>
       <r>   -4.6281    1.0000 </r>
       <r>   -4.6277    1.0000 </r>
       <r>   -4.6273    1.0000 </r>
       <r>   -4.6272    1.0000 </r>
       <r>   -4.6272    1.0000 </r>
       <r>   -4.6270    1.0000 </r>
       <r>   -4.6266    1.0000 </r>
       <r>   -4.6265    1.0000 </r>
       <r>   -4.6264    1.0000 </r>
       <r>   -4.6264    1.0000 </r>
       <r>   -4.6261    1.0000 </r>
       <r>   -4.6260    1.0000 </r>
       <r>   -4.6259    1.0000 </r>
       <r>   -4.6259    1.0000 </r>
       <r>   -4.6190    1.0000 </r>
       <r>   -4.6139    1.0000 </r>
       <r>   -4.6139    1.0000 </r>
       <r>   -4.6138    1.0000 </r>
       <r>   -4.6137    1.0000 </r>
       <r>   -4.6134    1.0000 </r>
       <r>   -4.6133    1.0000 </r>
       <r>   -4.6133    1.0000 </r>
       <r>   -4.6132    1.0000 </r>
       <r>   -4.6107    1.0000 </r>
       <r>   -4.6107    1.0000 </r>
       <r>   -4.6106    1.0000 </r>
       <r>   -4.6106    1.0000 </r>
       <r>   -4.6101    1.0000 </r>
       <r>   -4.6094    1.0000 </r>
       <r>   -4.6090    1.0000 </r>
       <r>   -4.6088    1.0000 </r>
       <r>   -4.6087    1.0000 </r>
       <r>   -4.6086    1.0000 </r>
       <r>   -4.6084    1.0000 </r>
       <r>   -4.5985    1.0000 </r>
       <r>   -4.5977    1.0000 </r>
       <r>   -4.5975    1.0000 </r>
       <r>   -4.5975    1.0000 </r>
       <r>   -4.5974    1.0000 </r>
       <r>   -4.5973    1.0000 </r>
       <r>   -4.5971    1.0000 </r>
       <r>   -4.5970    1.0000 </r>
       <r>   -4.5961    1.0000 </r>
       <r>   -4.5936    1.0000 </r>
       <r>   -4.5929    1.0000 </r>
       <r>   -4.5929    1.0000 </r>
       <r>   -4.5928    1.0000 </r>
       <r>   -4.5894    1.0000 </r>
       <r>   -4.5893    1.0000 </r>
       <r>   -4.5893    1.0000 </r>
       <r>   -4.5891    1.0000 </r>
       <r>   -4.5865    1.0000 </r>
       <r>   -4.5862    1.0000 </r>
       <r>   -4.5861    1.0000 </r>
       <r>   -4.5859    1.0000 </r>
       <r>   -4.5856    1.0000 </r>
       <r>   -4.5856    1.0000 </r>
       <r>   -4.5855    1.0000 </r>
       <r>   -4.5842    1.0000 </r>
       <r>   -4.5705    1.0000 </r>
       <r>   -4.5704    1.0000 </r>
       <r>   -4.5703    1.0000 </r>
       <r>   -4.5702    1.0000 </r>
       <r>   -4.5670    1.0000 </r>
       <r>   -4.5668    1.0000 </r>
       <r>   -4.5666    1.0000 </r>
       <r>   -4.5665    1.0000 </r>
       <r>   -4.5617    1.0000 </r>
       <r>   -4.5615    1.0000 </r>
       <r>   -4.5613    1.0000 </r>
       <r>   -4.5612    1.0000 </r>
       <r>   -4.5611    1.0000 </r>
       <r>   -4.5610    1.0000 </r>
       <r>   -4.5608    1.0000 </r>
       <r>   -4.5584    1.0000 </r>
       <r>   -4.5570    1.0000 </r>
       <r>   -4.5567    1.0000 </r>
       <r>   -4.5566    1.0000 </r>
       <r>   -4.5566    1.0000 </r>
       <r>   -4.5529    1.0000 </r>
       <r>   -4.5524    1.0000 </r>
       <r>   -4.5522    1.0000 </r>
       <r>   -4.5501    1.0000 </r>
       <r>   -4.5412    1.0000 </r>
       <r>   -4.5407    1.0000 </r>
       <r>   -4.5406    1.0000 </r>
       <r>   -4.5396    1.0000 </r>
       <r>   -4.5335    1.0000 </r>
       <r>   -4.5335    1.0000 </r>
       <r>   -4.5335    1.0000 </r>
       <r>   -4.5334    1.0000 </r>
       <r>   -4.5307    1.0000 </r>
       <r>   -4.5284    1.0000 </r>
       <r>   -4.5282    1.0000 </r>
       <r>   -4.5277    1.0000 </r>
       <r>   -4.5277    1.0000 </r>
       <r>   -4.5276    1.0000 </r>
       <r>   -4.5274    1.0000 </r>
       <r>   -4.5273    1.0000 </r>
       <r>   -4.5273    1.0000 </r>
       <r>   -4.5272    1.0000 </r>
       <r>   -4.5272    1.0000 </r>
       <r>   -4.5269    1.0000 </r>
       <r>   -4.5223    1.0000 </r>
       <r>   -4.5222    1.0000 </r>
       <r>   -4.5221    1.0000 </r>
       <r>   -4.5219    1.0000 </r>
       <r>   -4.5163    1.0000 </r>
       <r>   -4.5163    1.0000 </r>
       <r>   -4.5161    1.0000 </r>
       <r>   -4.5161    1.0000 </r>
       <r>   -4.5052    1.0000 </r>
       <r>   -4.5051    1.0000 </r>
       <r>   -4.5047    1.0000 </r>
       <r>   -4.5047    1.0000 </r>
       <r>   -4.5009    1.0000 </r>
       <r>   -4.5008    1.0000 </r>
       <r>   -4.5008    1.0000 </r>
       <r>   -4.5005    1.0000 </r>
       <r>   -4.4999    1.0000 </r>
       <r>   -4.4987    1.0000 </r>
       <r>   -4.4985    1.0000 </r>
       <r>   -4.4984    1.0000 </r>
       <r>   -4.4967    1.0000 </r>
       <r>   -4.4966    1.0000 </r>
       <r>   -4.4960    1.0000 </r>
       <r>   -4.4960    1.0000 </r>
       <r>   -4.4930    1.0000 </r>
       <r>   -4.4930    1.0000 </r>
       <r>   -4.4705    1.0000 </r>
       <r>   -4.4676    1.0000 </r>
       <r>   -4.4673    1.0000 </r>
       <r>   -4.4670    1.0000 </r>
       <r>   -4.4669    1.0000 </r>
       <r>   -4.4668    1.0000 </r>
       <r>   -4.4668    1.0000 </r>
       <r>   -4.4570    1.0000 </r>
       <r>   -4.4560    1.0000 </r>
       <r>   -4.4490    1.0000 </r>
       <r>   -4.4473    1.0000 </r>
       <r>   -4.4471    1.0000 </r>
       <r>   -4.4469    1.0000 </r>
       <r>   -4.4467    1.0000 </r>
       <r>   -4.4467    1.0000 </r>
       <r>   -4.4464    1.0000 </r>
       <r>   -4.4463    1.0000 </r>
       <r>   -4.4462    1.0000 </r>
       <r>   -4.4461    1.0000 </r>
       <r>   -4.4445    1.0000 </r>
       <r>   -4.4438    1.0000 </r>
       <r>   -4.4434    1.0000 </r>
       <r>   -4.4282    1.0000 </r>
       <r>   -4.4229    1.0000 </r>
       <r>   -4.4220    1.0000 </r>
       <r>   -4.4134    1.0000 </r>
       <r>   -4.4126    1.0000 </r>
       <r>   -4.4125    1.0000 </r>
       <r>   -4.4124    1.0000 </r>
       <r>   -4.3859    1.0000 </r>
       <r>   -4.3825    1.0000 </r>
       <r>   -4.3823    1.0000 </r>
       <r>   -4.3663    1.0000 </r>
       <r>   -4.2600    1.0000 </r>
       <r>   -4.2578    1.0000 </r>
       <r>   -4.2576    1.0000 </r>
       <r>   -4.2570    1.0000 </r>
       <r>   -4.2146    1.0000 </r>
       <r>   -4.2127    1.0000 </r>
       <r>   -4.2125    1.0000 </r>
       <r>   -4.2120    1.0000 </r>
       <r>   -4.1232    1.0000 </r>
       <r>   -4.1216    1.0000 </r>
       <r>   -4.1215    1.0000 </r>
       <r>   -4.1212    1.0000 </r>
       <r>   -4.1212    1.0000 </r>
       <r>   -4.1212    1.0000 </r>
       <r>   -4.1211    1.0000 </r>
       <r>   -4.1211    1.0000 </r>
       <r>   -4.1162    1.0000 </r>
       <r>   -4.1149    1.0000 </r>
       <r>   -4.1148    1.0000 </r>
       <r>   -4.1144    1.0000 </r>
       <r>   -4.1139    1.0000 </r>
       <r>   -4.1139    1.0000 </r>
       <r>   -4.1139    1.0000 </r>
       <r>   -4.1138    1.0000 </r>
       <r>   -4.1092    1.0000 </r>
       <r>   -4.1078    1.0000 </r>
       <r>   -4.1076    1.0000 </r>
       <r>   -4.1007    1.0000 </r>
       <r>   -4.0982    1.0000 </r>
       <r>   -4.0973    1.0000 </r>
       <r>   -4.0972    1.0000 </r>
       <r>   -4.0970    1.0000 </r>
       <r>   -4.0833    1.0000 </r>
       <r>   -4.0807    1.0000 </r>
       <r>   -4.0806    1.0000 </r>
       <r>   -4.0804    1.0000 </r>
       <r>   -4.0037    1.0000 </r>
       <r>   -3.9710    1.0000 </r>
       <r>   -3.9707    1.0000 </r>
       <r>   -3.9705    1.0000 </r>
       <r>   -3.9704    1.0000 </r>
       <r>   -3.9704    1.0000 </r>
       <r>   -3.9703    1.0000 </r>
       <r>   -3.9674    1.0000 </r>
       <r>   -3.9621    1.0000 </r>
       <r>   -3.9593    1.0000 </r>
       <r>   -3.9591    1.0000 </r>
       <r>   -3.9574    1.0000 </r>
       <r>   -3.9361    1.0000 </r>
       <r>   -3.9191    1.0000 </r>
       <r>   -3.9185    1.0000 </r>
       <r>   -3.9182    1.0000 </r>
       <r>   -3.9181    1.0000 </r>
       <r>   -3.9180    1.0000 </r>
       <r>   -3.9180    1.0000 </r>
       <r>   -3.9138    1.0000 </r>
       <r>   -3.9032    1.0000 </r>
       <r>   -3.9016    1.0000 </r>
       <r>   -3.8995    1.0000 </r>
       <r>   -3.8911    1.0000 </r>
       <r>   -3.8907    1.0000 </r>
       <r>   -3.8883    1.0000 </r>
       <r>   -3.8855    1.0000 </r>
       <r>   -3.8848    1.0000 </r>
       <r>   -3.8847    1.0000 </r>
       <r>   -3.8847    1.0000 </r>
       <r>   -3.8846    1.0000 </r>
       <r>   -3.8846    1.0000 </r>
       <r>   -3.8845    1.0000 </r>
       <r>   -3.8845    1.0000 </r>
       <r>   -3.8765    1.0000 </r>
       <r>   -3.8673    1.0000 </r>
       <r>   -3.8668    1.0000 </r>
       <r>   -3.8654    1.0000 </r>
       <r>   -3.8635    1.0000 </r>
       <r>   -3.8620    1.0000 </r>
       <r>   -3.8616    1.0000 </r>
       <r>   -3.8611    1.0000 </r>
       <r>   -3.8610    1.0000 </r>
       <r>   -3.8610    1.0000 </r>
       <r>   -3.8610    1.0000 </r>
       <r>   -3.8523    1.0000 </r>
       <r>   -3.8300    1.0000 </r>
       <r>   -3.8130    1.0000 </r>
       <r>   -3.8126    1.0000 </r>
       <r>   -3.8121    1.0000 </r>
       <r>   -3.8120    1.0000 </r>
       <r>   -3.8120    1.0000 </r>
       <r>   -3.8119    1.0000 </r>
       <r>   -3.8119    1.0000 </r>
       <r>   -3.7816    1.0000 </r>
       <r>   -3.7566    1.0000 </r>
       <r>   -3.7564    1.0000 </r>
       <r>   -3.7563    1.0000 </r>
       <r>   -3.7551    1.0000 </r>
       <r>   -3.7433    1.0000 </r>
       <r>   -3.7427    1.0000 </r>
       <r>   -3.7426    1.0000 </r>
       <r>   -3.7423    1.0000 </r>
       <r>   -3.7423    1.0000 </r>
       <r>   -3.7421    1.0000 </r>
       <r>   -3.7365    1.0000 </r>
       <r>   -3.7315    1.0000 </r>
       <r>   -3.7248    1.0000 </r>
       <r>   -3.7245    1.0000 </r>
       <r>   -3.7240    1.0000 </r>
       <r>   -3.7240    1.0000 </r>
       <r>   -3.7240    1.0000 </r>
       <r>   -3.7239    1.0000 </r>
       <r>   -3.7128    1.0000 </r>
       <r>   -3.7056    1.0000 </r>
       <r>   -3.7016    1.0000 </r>
       <r>   -3.7015    1.0000 </r>
       <r>   -3.6890    1.0000 </r>
       <r>   -3.6129    1.0000 </r>
       <r>   -3.5006    1.0000 </r>
       <r>   -3.5002    1.0000 </r>
       <r>   -3.4956    1.0000 </r>
       <r>   -3.4862    1.0000 </r>
       <r>   -3.4618    1.0000 </r>
       <r>   -3.4616    1.0000 </r>
       <r>   -3.4616    1.0000 </r>
       <r>   -3.4614    1.0000 </r>
       <r>   -3.4614    1.0000 </r>
       <r>   -3.4613    1.0000 </r>
       <r>   -3.4612    1.0000 </r>
       <r>   -3.4509    1.0000 </r>
       <r>   -3.3472    1.0000 </r>
       <r>   -3.3472    1.0000 </r>
       <r>   -3.3471    1.0000 </r>
       <r>   -3.3467    1.0000 </r>
       <r>   -3.3467    1.0000 </r>
       <r>   -3.3467    1.0000 </r>
       <r>   -3.3466    1.0000 </r>
       <r>   -3.3448    1.0000 </r>
       <r>   -3.3056    1.0000 </r>
       <r>   -3.3056    1.0000 </r>
       <r>   -3.3021    1.0000 </r>
       <r>   -3.2958    1.0000 </r>
       <r>   -3.2600    1.0000 </r>
       <r>   -3.2599    1.0000 </r>
       <r>   -3.2599    1.0000 </r>
       <r>   -3.2587    1.0000 </r>
       <r>   -3.2084    1.0000 </r>
       <r>   -3.2083    1.0000 </r>
       <r>   -3.2081    1.0000 </r>
       <r>   -3.2080    1.0000 </r>
       <r>   -3.1980    1.0000 </r>
       <r>   -3.1975    1.0000 </r>
       <r>   -3.1972    1.0000 </r>
       <r>   -3.1972    1.0000 </r>
       <r>   -3.1971    1.0000 </r>
       <r>   -3.1970    1.0000 </r>
       <r>   -3.1909    1.0000 </r>
       <r>   -3.1761    1.0000 </r>
       <r>   -2.9645    1.0000 </r>
       <r>   -2.9645    1.0000 </r>
       <r>   -2.9644    1.0000 </r>
       <r>   -2.9631    1.0000 </r>
       <r>   -2.9500    1.0000 </r>
       <r>   -2.9499    1.0000 </r>
       <r>   -2.9499    1.0000 </r>
       <r>   -2.9498    1.0000 </r>
       <r>   -2.9497    1.0000 </r>
       <r>   -2.9497    1.0000 </r>
       <r>   -2.9497    1.0000 </r>
       <r>   -2.9497    1.0000 </r>
       <r>   -2.8714    1.0000 </r>
       <r>   -2.8136    1.0000 </r>
       <r>   -2.8134    1.0000 </r>
       <r>   -2.8125    1.0000 </r>
       <r>   -2.8122    1.0000 </r>
       <r>   -2.8054    1.0000 </r>
       <r>   -2.8053    1.0000 </r>
       <r>   -2.8027    1.0000 </r>
       <r>   -2.7989    1.0000 </r>
       <r>   -2.7756    1.0000 </r>
       <r>   -2.7752    1.0000 </r>
       <r>   -2.7744    1.0000 </r>
       <r>   -2.7744    1.0000 </r>
       <r>   -2.7743    1.0000 </r>
       <r>   -2.7743    1.0000 </r>
       <r>   -2.7730    1.0000 </r>
       <r>   -2.7721    1.0000 </r>
       <r>   -2.7608    1.0000 </r>
       <r>   -2.7607    1.0000 </r>
       <r>   -2.7606    1.0000 </r>
       <r>   -2.7604    1.0000 </r>
       <r>   -2.7604    1.0000 </r>
       <r>   -2.7603    1.0000 </r>
       <r>   -2.7602    1.0000 </r>
       <r>   -2.7599    1.0000 </r>
       <r>   -2.7545    1.0000 </r>
       <r>   -2.7545    1.0000 </r>
       <r>   -2.7543    1.0000 </r>
       <r>   -2.7540    1.0000 </r>
       <r>   -2.7539    1.0000 </r>
       <r>   -2.7539    1.0000 </r>
       <r>   -2.7504    1.0000 </r>
       <r>   -2.7490    1.0000 </r>
       <r>   -2.7382    1.0000 </r>
       <r>   -2.7379    1.0000 </r>
       <r>   -2.7374    1.0000 </r>
       <r>   -2.7372    1.0000 </r>
       <r>   -2.7371    1.0000 </r>
       <r>   -2.7370    1.0000 </r>
       <r>   -2.7335    1.0000 </r>
       <r>   -2.7317    1.0000 </r>
       <r>   -2.7272    1.0000 </r>
       <r>   -2.7270    1.0000 </r>
       <r>   -2.7239    1.0000 </r>
       <r>   -2.7192    1.0000 </r>
       <r>   -2.6996    1.0000 </r>
       <r>   -2.6987    1.0000 </r>
       <r>   -2.6980    1.0000 </r>
       <r>   -2.6979    1.0000 </r>
       <r>   -2.6979    1.0000 </r>
       <r>   -2.6978    1.0000 </r>
       <r>   -2.6938    1.0000 </r>
       <r>   -2.6879    1.0000 </r>
       <r>   -2.6292    1.0000 </r>
       <r>   -2.6290    1.0000 </r>
       <r>   -2.6286    1.0000 </r>
       <r>   -2.6284    1.0000 </r>
       <r>   -2.6284    1.0000 </r>
       <r>   -2.6282    1.0000 </r>
       <r>   -2.6273    1.0000 </r>
       <r>   -2.6259    1.0000 </r>
       <r>   -2.6242    1.0000 </r>
       <r>   -2.6241    1.0000 </r>
       <r>   -2.6234    1.0000 </r>
       <r>   -2.6210    1.0000 </r>
       <r>   -2.4988    1.0000 </r>
       <r>   -2.4982    1.0000 </r>
       <r>   -2.4980    1.0000 </r>
       <r>   -2.4878    1.0000 </r>
       <r>   -2.4656    1.0000 </r>
       <r>   -2.4655    1.0000 </r>
       <r>   -2.4655    1.0000 </r>
       <r>   -2.4654    1.0000 </r>
       <r>   -2.4654    1.0000 </r>
       <r>   -2.4654    1.0000 </r>
       <r>   -2.4653    1.0000 </r>
       <r>   -2.4649    1.0000 </r>
       <r>   -2.4078    1.0000 </r>
       <r>   -2.4077    1.0000 </r>
       <r>   -2.4068    1.0000 </r>
       <r>   -2.4068    1.0000 </r>
       <r>   -2.4067    1.0000 </r>
       <r>   -2.4067    1.0000 </r>
       <r>   -2.4067    1.0000 </r>
       <r>   -2.4057    1.0000 </r>
       <r>   -2.3726    1.0000 </r>
       <r>   -2.3714    1.0000 </r>
       <r>   -2.3710    1.0000 </r>
       <r>   -2.3697    1.0000 </r>
       <r>   -2.3505    1.0000 </r>
       <r>   -2.3503    1.0000 </r>
       <r>   -2.3480    1.0000 </r>
       <r>   -2.3446    1.0000 </r>
       <r>   -2.3175    1.0000 </r>
       <r>   -2.3167    1.0000 </r>
       <r>   -2.3166    1.0000 </r>
       <r>   -2.3166    1.0000 </r>
       <r>   -2.3165    1.0000 </r>
       <r>   -2.3164    1.0000 </r>
       <r>   -2.3163    1.0000 </r>
       <r>   -2.3147    1.0000 </r>
       <r>   -2.2970    1.0000 </r>
       <r>   -2.2969    1.0000 </r>
       <r>   -2.2961    1.0000 </r>
       <r>   -2.2960    1.0000 </r>
       <r>   -2.2960    1.0000 </r>
       <r>   -2.2959    1.0000 </r>
       <r>   -2.2912    1.0000 </r>
       <r>   -2.2827    1.0000 </r>
       <r>   -2.2118    1.0000 </r>
       <r>   -2.2109    1.0000 </r>
       <r>   -2.2104    1.0000 </r>
       <r>   -2.1984    1.0000 </r>
       <r>   -2.1873    1.0000 </r>
       <r>   -2.1871    1.0000 </r>
       <r>   -2.1870    1.0000 </r>
       <r>   -2.1870    1.0000 </r>
       <r>   -2.1575    1.0000 </r>
       <r>   -2.1574    1.0000 </r>
       <r>   -2.1570    1.0000 </r>
       <r>   -2.1570    1.0000 </r>
       <r>   -2.1080    1.0000 </r>
       <r>   -2.1079    1.0000 </r>
       <r>   -2.1077    1.0000 </r>
       <r>   -2.1076    1.0000 </r>
       <r>   -2.1016    1.0000 </r>
       <r>   -2.1007    1.0000 </r>
       <r>   -2.1000    1.0000 </r>
       <r>   -2.0997    1.0000 </r>
       <r>   -2.0997    1.0000 </r>
       <r>   -2.0995    1.0000 </r>
       <r>   -2.0954    1.0000 </r>
       <r>   -2.0843    1.0000 </r>
       <r>   -1.9569    1.0000 </r>
       <r>   -1.9568    1.0000 </r>
       <r>   -1.9566    1.0000 </r>
       <r>   -1.9565    1.0000 </r>
       <r>   -1.8638    1.0000 </r>
       <r>   -1.8637    1.0000 </r>
       <r>   -1.8632    1.0000 </r>
       <r>   -1.8631    1.0000 </r>
       <r>   -1.8257    1.0000 </r>
       <r>   -1.8253    1.0000 </r>
       <r>   -1.8250    1.0000 </r>
       <r>   -1.8249    1.0000 </r>
       <r>   -1.8249    1.0000 </r>
       <r>   -1.8248    1.0000 </r>
       <r>   -1.8248    1.0000 </r>
       <r>   -1.8241    1.0000 </r>
       <r>   -1.8211    1.0000 </r>
       <r>   -1.8210    1.0000 </r>
       <r>   -1.8206    1.0000 </r>
       <r>   -1.8206    1.0000 </r>
       <r>   -1.6990    1.0024 </r>
       <r>   -1.6982    1.0025 </r>
       <r>   -1.6964    1.0027 </r>
       <r>   -1.6958    1.0028 </r>
       <r>   -1.6838    1.0044 </r>
       <r>   -1.6834    1.0045 </r>
       <r>   -1.6823    1.0047 </r>
       <r>   -1.6815    1.0048 </r>
       <r>   -1.6812    1.0048 </r>
       <r>   -1.6811    1.0049 </r>
       <r>   -1.6807    1.0049 </r>
       <r>   -1.6807    1.0049 </r>
       <r>   -1.6806    1.0049 </r>
       <r>   -1.6805    1.0050 </r>
       <r>   -1.6802    1.0050 </r>
       <r>   -1.6717    1.0067 </r>
       <r>   -1.5147    0.8596 </r>
       <r>   -1.5126    0.8476 </r>
       <r>   -1.5123    0.8457 </r>
       <r>   -1.5122    0.8451 </r>
       <r>   -1.5120    0.8438 </r>
       <r>   -1.5119    0.8434 </r>
       <r>   -1.5117    0.8426 </r>
       <r>   -1.5113    0.8401 </r>
       <r>   -1.5023    0.7822 </r>
       <r>   -1.5011    0.7740 </r>
       <r>   -1.5004    0.7693 </r>
       <r>   -1.5002    0.7677 </r>
       <r>   -1.5001    0.7672 </r>
       <r>   -1.5000    0.7661 </r>
       <r>   -1.4998    0.7648 </r>
       <r>   -1.4993    0.7614 </r>
       <r>   -1.4986    0.7561 </r>
       <r>   -1.4984    0.7553 </r>
       <r>   -1.4958    0.7360 </r>
       <r>   -1.4869    0.6686 </r>
       <r>   -1.4780    0.5965 </r>
       <r>   -1.4778    0.5945 </r>
       <r>   -1.4767    0.5853 </r>
       <r>   -1.4766    0.5844 </r>
       <r>   -1.4765    0.5839 </r>
       <r>   -1.4765    0.5838 </r>
       <r>   -1.4747    0.5691 </r>
       <r>   -1.4679    0.5116 </r>
       <r>   -1.4487    0.3513 </r>
       <r>   -1.4486    0.3511 </r>
       <r>   -1.4486    0.3505 </r>
       <r>   -1.4485    0.3501 </r>
       <r>   -1.4416    0.2960 </r>
       <r>   -1.4412    0.2926 </r>
       <r>   -1.4411    0.2921 </r>
       <r>   -1.4405    0.2874 </r>
       <r>   -1.4404    0.2872 </r>
       <r>   -1.4403    0.2862 </r>
       <r>   -1.4387    0.2744 </r>
       <r>   -1.4362    0.2556 </r>
       <r>   -1.4233    0.1692 </r>
       <r>   -1.4232    0.1684 </r>
       <r>   -1.4231    0.1678 </r>
       <r>   -1.4230    0.1675 </r>
       <r>   -1.4055    0.0754 </r>
       <r>   -1.4008    0.0558 </r>
       <r>   -1.4007    0.0555 </r>
       <r>   -1.4007    0.0555 </r>
       <r>   -1.4007    0.0553 </r>
       <r>   -1.4002    0.0536 </r>
       <r>   -1.4002    0.0533 </r>
       <r>   -1.3975    0.0436 </r>
       <r>   -1.3517   -0.0345 </r>
       <r>   -1.3516   -0.0345 </r>
       <r>   -1.3509   -0.0347 </r>
       <r>   -1.3504   -0.0348 </r>
       <r>   -1.3141   -0.0266 </r>
       <r>   -1.3131   -0.0261 </r>
       <r>   -1.3123   -0.0257 </r>
       <r>   -1.3118   -0.0255 </r>
       <r>   -1.2914   -0.0164 </r>
       <r>   -1.2568   -0.0058 </r>
       <r>   -1.2567   -0.0057 </r>
       <r>   -1.2546   -0.0053 </r>
       <r>   -1.2525   -0.0049 </r>
       <r>   -1.2326   -0.0023 </r>
       <r>   -1.2323   -0.0023 </r>
       <r>   -1.2313   -0.0022 </r>
       <r>   -1.2310   -0.0022 </r>
       <r>   -1.2309   -0.0021 </r>
       <r>   -1.2308   -0.0021 </r>
       <r>   -1.2308   -0.0021 </r>
       <r>   -1.2306   -0.0021 </r>
       <r>   -1.2265   -0.0018 </r>
       <r>   -1.2263   -0.0018 </r>
       <r>   -1.2254   -0.0017 </r>
       <r>   -1.2250   -0.0017 </r>
       <r>   -1.2249   -0.0017 </r>
       <r>   -1.2248   -0.0017 </r>
       <r>   -1.2217   -0.0015 </r>
       <r>   -1.2156   -0.0011 </r>
       <r>   -1.1515   -0.0000 </r>
       <r>   -1.1505   -0.0000 </r>
       <r>   -1.1503   -0.0000 </r>
       <r>   -1.1498   -0.0000 </r>
       <r>   -1.1497   -0.0000 </r>
       <r>   -1.1496   -0.0000 </r>
       <r>   -1.1465   -0.0000 </r>
       <r>   -1.1427   -0.0000 </r>
       <r>   -1.1155   -0.0000 </r>
       <r>   -1.1146   -0.0000 </r>
       <r>   -1.1129   -0.0000 </r>
       <r>   -1.1128   -0.0000 </r>
       <r>   -1.1127   -0.0000 </r>
       <r>   -1.1127   -0.0000 </r>
       <r>   -1.1106   -0.0000 </r>
       <r>   -1.1073   -0.0000 </r>
       <r>   -1.0650   -0.0000 </r>
       <r>   -1.0649   -0.0000 </r>
       <r>   -1.0648   -0.0000 </r>
       <r>   -1.0646   -0.0000 </r>
       <r>   -1.0601   -0.0000 </r>
       <r>   -1.0597   -0.0000 </r>
       <r>   -1.0597   -0.0000 </r>
       <r>   -1.0595   -0.0000 </r>
       <r>   -0.9890   -0.0000 </r>
       <r>   -0.9885   -0.0000 </r>
       <r>   -0.9864   -0.0000 </r>
       <r>   -0.9821   -0.0000 </r>
       <r>   -0.9547   -0.0000 </r>
       <r>   -0.9539   -0.0000 </r>
       <r>   -0.9535   -0.0000 </r>
       <r>   -0.9407   -0.0000 </r>
       <r>   -0.9357   -0.0000 </r>
       <r>   -0.9353   -0.0000 </r>
       <r>   -0.9348   -0.0000 </r>
       <r>   -0.9330   -0.0000 </r>
       <r>   -0.9173   -0.0000 </r>
       <r>   -0.9168   -0.0000 </r>
       <r>   -0.9163   -0.0000 </r>
       <r>   -0.9161   -0.0000 </r>
       <r>   -0.9160   -0.0000 </r>
       <r>   -0.9160   -0.0000 </r>
       <r>   -0.9156   -0.0000 </r>
       <r>   -0.9142   -0.0000 </r>
       <r>   -0.7457   -0.0000 </r>
       <r>   -0.7455   -0.0000 </r>
       <r>   -0.7454   -0.0000 </r>
       <r>   -0.7453   -0.0000 </r>
       <r>   -0.7412   -0.0000 </r>
       <r>   -0.7411   -0.0000 </r>
       <r>   -0.7410   -0.0000 </r>
       <r>   -0.7408   -0.0000 </r>
       <r>   -0.7296   -0.0000 </r>
       <r>   -0.7295   -0.0000 </r>
       <r>   -0.7295   -0.0000 </r>
       <r>   -0.7295   -0.0000 </r>
       <r>   -0.6746   -0.0000 </r>
       <r>   -0.6742   -0.0000 </r>
       <r>   -0.6720   -0.0000 </r>
       <r>   -0.6701   -0.0000 </r>
       <r>   -0.6574   -0.0000 </r>
       <r>   -0.6562   -0.0000 </r>
       <r>   -0.6558   -0.0000 </r>
       <r>   -0.6511   -0.0000 </r>
       <r>   -0.6492   -0.0000 </r>
       <r>   -0.6490   -0.0000 </r>
       <r>   -0.6481   -0.0000 </r>
       <r>   -0.6480   -0.0000 </r>
       <r>   -0.6479   -0.0000 </r>
       <r>   -0.6478   -0.0000 </r>
       <r>   -0.6478   -0.0000 </r>
       <r>   -0.6435   -0.0000 </r>
       <r>   -0.6301   -0.0000 </r>
       <r>   -0.6285   -0.0000 </r>
       <r>   -0.6282   -0.0000 </r>
       <r>   -0.6280   -0.0000 </r>
       <r>   -0.6280   -0.0000 </r>
       <r>   -0.6279   -0.0000 </r>
       <r>   -0.6273   -0.0000 </r>
       <r>   -0.6267   -0.0000 </r>
       <r>   -0.6260   -0.0000 </r>
       <r>   -0.6257   -0.0000 </r>
       <r>   -0.6249   -0.0000 </r>
       <r>   -0.6229   -0.0000 </r>
       <r>   -0.5593   -0.0000 </r>
       <r>   -0.5587   -0.0000 </r>
       <r>   -0.5576   -0.0000 </r>
       <r>   -0.5570   -0.0000 </r>
       <r>   -0.5570   -0.0000 </r>
       <r>   -0.5569   -0.0000 </r>
       <r>   -0.5540   -0.0000 </r>
       <r>   -0.5497   -0.0000 </r>
       <r>   -0.5495   -0.0000 </r>
       <r>   -0.5493   -0.0000 </r>
       <r>   -0.5486   -0.0000 </r>
       <r>   -0.5372   -0.0000 </r>
       <r>   -0.4665   -0.0000 </r>
       <r>   -0.4662   -0.0000 </r>
       <r>   -0.4656   -0.0000 </r>
       <r>   -0.4656   -0.0000 </r>
       <r>   -0.4475   -0.0000 </r>
       <r>   -0.3831   -0.0000 </r>
       <r>   -0.3810   -0.0000 </r>
       <r>   -0.3806   -0.0000 </r>
       <r>   -0.3799   -0.0000 </r>
       <r>   -0.2603   -0.0000 </r>
       <r>   -0.2578   -0.0000 </r>
       <r>   -0.2574   -0.0000 </r>
       <r>   -0.2571   -0.0000 </r>
       <r>   -0.2516   -0.0000 </r>
       <r>   -0.2507   -0.0000 </r>
       <r>   -0.2505   -0.0000 </r>
       <r>   -0.2503   -0.0000 </r>
       <r>   -0.2503   -0.0000 </r>
       <r>   -0.2503   -0.0000 </r>
       <r>   -0.2502   -0.0000 </r>
       <r>   -0.2499   -0.0000 </r>
       <r>   -0.2359   -0.0000 </r>
       <r>   -0.2334   -0.0000 </r>
       <r>   -0.2317   -0.0000 </r>
       <r>   -0.2313   -0.0000 </r>
       <r>   -0.2313   -0.0000 </r>
       <r>   -0.2310   -0.0000 </r>
       <r>   -0.2285   -0.0000 </r>
       <r>   -0.2198   -0.0000 </r>
       <r>   -0.1663   -0.0000 </r>
       <r>   -0.1641   -0.0000 </r>
       <r>   -0.1640   -0.0000 </r>
       <r>   -0.1637   -0.0000 </r>
       <r>   -0.1637   -0.0000 </r>
       <r>   -0.1636   -0.0000 </r>
       <r>   -0.1634   -0.0000 </r>
       <r>   -0.1627   -0.0000 </r>
       <r>   -0.1245   -0.0000 </r>
       <r>   -0.1236   -0.0000 </r>
       <r>   -0.1218   -0.0000 </r>
       <r>   -0.1127   -0.0000 </r>
       <r>   -0.0293   -0.0000 </r>
       <r>   -0.0232   -0.0000 </r>
       <r>   -0.0228   -0.0000 </r>
       <r>   -0.0222   -0.0000 </r>
       <r>   -0.0205   -0.0000 </r>
       <r>   -0.0203   -0.0000 </r>
       <r>   -0.0199   -0.0000 </r>
       <r>   -0.0198   -0.0000 </r>
       <r>   -0.0185   -0.0000 </r>
       <r>   -0.0175   -0.0000 </r>
       <r>   -0.0173   -0.0000 </r>
       <r>   -0.0167   -0.0000 </r>
       <r>   -0.0167   -0.0000 </r>
       <r>   -0.0166   -0.0000 </r>
       <r>   -0.0166   -0.0000 </r>
       <r>   -0.0163   -0.0000 </r>
       <r>   -0.0163   -0.0000 </r>
       <r>   -0.0161   -0.0000 </r>
       <r>   -0.0144   -0.0000 </r>
       <r>   -0.0097   -0.0000 </r>
       <r>    0.0124   -0.0000 </r>
       <r>    0.0128   -0.0000 </r>
       <r>    0.0148   -0.0000 </r>
       <r>    0.0162   -0.0000 </r>
       <r>    0.0259   -0.0000 </r>
       <r>    0.0264   -0.0000 </r>
       <r>    0.0273   -0.0000 </r>
       <r>    0.0278   -0.0000 </r>
       <r>    0.0352   -0.0000 </r>
       <r>    0.0357   -0.0000 </r>
       <r>    0.0372   -0.0000 </r>
       <r>    0.0375   -0.0000 </r>
       <r>    0.0376   -0.0000 </r>
       <r>    0.0377   -0.0000 </r>
       <r>    0.0387   -0.0000 </r>
       <r>    0.0409   -0.0000 </r>
       <r>    0.0445   -0.0000 </r>
       <r>    0.0447   -0.0000 </r>
       <r>    0.0447   -0.0000 </r>
       <r>    0.0448   -0.0000 </r>
       <r>    0.0705   -0.0000 </r>
       <r>    0.0712   -0.0000 </r>
       <r>    0.0716   -0.0000 </r>
       <r>    0.0717   -0.0000 </r>
       <r>    0.0890   -0.0000 </r>
       <r>    0.0909   -0.0000 </r>
       <r>    0.0913   -0.0000 </r>
       <r>    0.0925   -0.0000 </r>
       <r>    0.0926   -0.0000 </r>
       <r>    0.0928   -0.0000 </r>
       <r>    0.0928   -0.0000 </r>
       <r>    0.0929   -0.0000 </r>
       <r>    0.0996   -0.0000 </r>
       <r>    0.1018   -0.0000 </r>
       <r>    0.1034   -0.0000 </r>
       <r>    0.1038   -0.0000 </r>
       <r>    0.1038   -0.0000 </r>
       <r>    0.1040   -0.0000 </r>
       <r>    0.1054   -0.0000 </r>
       <r>    0.1281   -0.0000 </r>
       <r>    0.1439   -0.0000 </r>
       <r>    0.1448   -0.0000 </r>
       <r>    0.1455   -0.0000 </r>
       <r>    0.1458   -0.0000 </r>
       <r>    0.1460   -0.0000 </r>
       <r>    0.1461   -0.0000 </r>
       <r>    0.1464   -0.0000 </r>
       <r>    0.1490   -0.0000 </r>
       <r>    0.1945   -0.0000 </r>
       <r>    0.1967   -0.0000 </r>
       <r>    0.1990   -0.0000 </r>
       <r>    0.2055   -0.0000 </r>
       <r>    0.3464   -0.0000 </r>
       <r>    0.3468   -0.0000 </r>
       <r>    0.3518   -0.0000 </r>
       <r>    0.3542   -0.0000 </r>
       <r>    0.3549   -0.0000 </r>
       <r>    0.3555   -0.0000 </r>
       <r>    0.3583   -0.0000 </r>
       <r>    0.3607   -0.0000 </r>
       <r>    0.3622   -0.0000 </r>
       <r>    0.3623   -0.0000 </r>
       <r>    0.3624   -0.0000 </r>
       <r>    0.3624   -0.0000 </r>
       <r>    0.3638   -0.0000 </r>
       <r>    0.3689   -0.0000 </r>
       <r>    0.3689   -0.0000 </r>
       <r>    0.3690   -0.0000 </r>
       <r>    0.3691   -0.0000 </r>
       <r>    0.3691   -0.0000 </r>
       <r>    0.3691   -0.0000 </r>
       <r>    0.3692   -0.0000 </r>
       <r>    0.3692   -0.0000 </r>
       <r>    0.3725   -0.0000 </r>
       <r>    0.4188   -0.0000 </r>
       <r>    0.4198   -0.0000 </r>
       <r>    0.4204   -0.0000 </r>
       <r>    0.4206   -0.0000 </r>
       <r>    0.4596   -0.0000 </r>
       <r>    0.4599   -0.0000 </r>
       <r>    0.4632   -0.0000 </r>
       <r>    0.4675   -0.0000 </r>
       <r>    0.5295   -0.0000 </r>
       <r>    0.5303   -0.0000 </r>
       <r>    0.5323   -0.0000 </r>
       <r>    0.5332   -0.0000 </r>
       <r>    0.5333   -0.0000 </r>
       <r>    0.5335    0.0000 </r>
       <r>    0.5360    0.0000 </r>
       <r>    0.5440    0.0000 </r>
       <r>    0.6054    0.0000 </r>
       <r>    0.6079    0.0000 </r>
       <r>    0.6090    0.0000 </r>
       <r>    0.6094    0.0000 </r>
       <r>    0.6096    0.0000 </r>
       <r>    0.6098    0.0000 </r>
       <r>    0.6098    0.0000 </r>
       <r>    0.6098    0.0000 </r>
       <r>    0.6475    0.0000 </r>
       <r>    0.6505    0.0000 </r>
       <r>    0.6515    0.0000 </r>
       <r>    0.6524    0.0000 </r>
       <r>    0.6525    0.0000 </r>
       <r>    0.6528    0.0000 </r>
       <r>    0.6554    0.0000 </r>
       <r>    0.6599    0.0000 </r>
       <r>    0.7074    0.0000 </r>
       <r>    0.7085    0.0000 </r>
       <r>    0.7109    0.0000 </r>
       <r>    0.7236    0.0000 </r>
       <r>    0.7859    0.0000 </r>
       <r>    0.7871    0.0000 </r>
       <r>    0.7880    0.0000 </r>
       <r>    0.7880    0.0000 </r>
       <r>    0.8205    0.0000 </r>
       <r>    0.8210    0.0000 </r>
       <r>    0.8215    0.0000 </r>
       <r>    0.8216    0.0000 </r>
       <r>    0.8920    0.0000 </r>
       <r>    0.8928    0.0000 </r>
       <r>    0.8940    0.0000 </r>
       <r>    0.8941    0.0000 </r>
       <r>    0.8941    0.0000 </r>
       <r>    0.8942    0.0000 </r>
       <r>    0.8942    0.0000 </r>
       <r>    0.8944    0.0000 </r>
       <r>    0.9166    0.0000 </r>
       <r>    0.9191    0.0000 </r>
       <r>    0.9198    0.0000 </r>
       <r>    0.9200    0.0000 </r>
       <r>    0.9200    0.0000 </r>
       <r>    0.9201    0.0000 </r>
       <r>    0.9201    0.0000 </r>
       <r>    0.9204    0.0000 </r>
       <r>    0.9449    0.0000 </r>
       <r>    0.9455    0.0000 </r>
       <r>    0.9489    0.0000 </r>
       <r>    0.9553    0.0000 </r>
       <r>    0.9589    0.0000 </r>
       <r>    0.9597    0.0000 </r>
       <r>    0.9598    0.0000 </r>
       <r>    0.9599    0.0000 </r>
       <r>    0.9822    0.0000 </r>
       <r>    0.9834    0.0000 </r>
       <r>    0.9840    0.0000 </r>
       <r>    0.9905    0.0000 </r>
       <r>    1.0185    0.0000 </r>
       <r>    1.0196    0.0000 </r>
       <r>    1.0200    0.0000 </r>
       <r>    1.0201    0.0000 </r>
       <r>    1.0203    0.0000 </r>
       <r>    1.0203    0.0000 </r>
       <r>    1.0204    0.0000 </r>
       <r>    1.0204    0.0000 </r>
       <r>    1.0310    0.0000 </r>
       <r>    1.0351    0.0000 </r>
       <r>    1.0363    0.0000 </r>
       <r>    1.0366    0.0000 </r>
       <r>    1.0368    0.0000 </r>
       <r>    1.0369    0.0000 </r>
       <r>    1.0371    0.0000 </r>
       <r>    1.0378    0.0000 </r>
       <r>    1.1078    0.0000 </r>
       <r>    1.1094    0.0000 </r>
       <r>    1.1111    0.0000 </r>
       <r>    1.1129    0.0000 </r>
       <r>    1.1130    0.0000 </r>
       <r>    1.1132    0.0000 </r>
       <r>    1.1133    0.0000 </r>
       <r>    1.1177    0.0000 </r>
       <r>    1.1208    0.0000 </r>
       <r>    1.1213    0.0000 </r>
       <r>    1.1217    0.0000 </r>
       <r>    1.1222    0.0000 </r>
       <r>    1.1223    0.0000 </r>
       <r>    1.1230    0.0000 </r>
       <r>    1.1235    0.0000 </r>
       <r>    1.1336    0.0000 </r>
       <r>    1.1386    0.0000 </r>
       <r>    1.1396    0.0000 </r>
       <r>    1.1402    0.0000 </r>
       <r>    1.1403    0.0000 </r>
       <r>    1.2748    0.0000 </r>
       <r>    1.2773    0.0000 </r>
       <r>    1.2779    0.0000 </r>
       <r>    1.2801    0.0000 </r>
       <r>    1.2808    0.0000 </r>
       <r>    1.2808    0.0000 </r>
       <r>    1.2810    0.0000 </r>
       <r>    1.2833    0.0000 </r>
       <r>    1.3166    0.0000 </r>
       <r>    1.3196    0.0000 </r>
       <r>    1.3209    0.0000 </r>
       <r>    1.3221    0.0000 </r>
       <r>    1.3223    0.0000 </r>
       <r>    1.3224    0.0000 </r>
       <r>    1.3239    0.0000 </r>
       <r>    1.3274    0.0000 </r>
       <r>    1.4825    0.0000 </r>
       <r>    1.5123    0.0000 </r>
       <r>    1.5141    0.0000 </r>
       <r>    1.5165    0.0000 </r>
       <r>    1.5188    0.0000 </r>
       <r>    1.5191    0.0000 </r>
       <r>    1.5197    0.0000 </r>
       <r>    1.5199    0.0000 </r>
       <r>    1.5199    0.0000 </r>
       <r>    1.5200    0.0000 </r>
       <r>    1.5201    0.0000 </r>
       <r>    1.5203    0.0000 </r>
       <r>    1.5214    0.0000 </r>
       <r>    1.5223    0.0000 </r>
       <r>    1.5235    0.0000 </r>
       <r>    1.5250    0.0000 </r>
       <r>    1.5256    0.0000 </r>
       <r>    1.5258    0.0000 </r>
       <r>    1.5258    0.0000 </r>
       <r>    1.5260    0.0000 </r>
       <r>    1.5309    0.0000 </r>
       <r>    1.5379    0.0000 </r>
       <r>    1.5418    0.0000 </r>
       <r>    1.5420    0.0000 </r>
       <r>    1.5424    0.0000 </r>
       <r>    1.5428    0.0000 </r>
       <r>    1.5440    0.0000 </r>
       <r>    1.5580    0.0000 </r>
       <r>    1.6553    0.0000 </r>
       <r>    1.6942    0.0000 </r>
       <r>    1.6954    0.0000 </r>
       <r>    1.6963    0.0000 </r>
       <r>    1.6972    0.0000 </r>
       <r>    1.6973    0.0000 </r>
       <r>    1.7025    0.0000 </r>
       <r>    1.7231    0.0000 </r>
       <r>    1.7254    0.0000 </r>
       <r>    1.7292    0.0000 </r>
       <r>    1.7350    0.0000 </r>
       <r>    1.7435    0.0000 </r>
       <r>    1.7447    0.0000 </r>
       <r>    1.7474    0.0000 </r>
       <r>    1.7482    0.0000 </r>
       <r>    1.7485    0.0000 </r>
       <r>    1.7487    0.0000 </r>
       <r>    1.7525    0.0000 </r>
       <r>    1.8007    0.0000 </r>
       <r>    1.8233    0.0000 </r>
       <r>    1.8310    0.0000 </r>
       <r>    1.8325    0.0000 </r>
       <r>    1.8361    0.0000 </r>
       <r>    1.8390    0.0000 </r>
       <r>    1.8395    0.0000 </r>
       <r>    1.8406    0.0000 </r>
       <r>    1.8681    0.0000 </r>
       <r>    1.9182    0.0000 </r>
       <r>    1.9191    0.0000 </r>
       <r>    1.9202    0.0000 </r>
       <r>    1.9204    0.0000 </r>
       <r>    1.9206    0.0000 </r>
       <r>    1.9207    0.0000 </r>
       <r>    1.9208    0.0000 </r>
       <r>    1.9300    0.0000 </r>
       <r>    1.9604    0.0000 </r>
       <r>    1.9606    0.0000 </r>
       <r>    1.9607    0.0000 </r>
       <r>    1.9608    0.0000 </r>
       <r>    2.0034    0.0000 </r>
       <r>    2.0036    0.0000 </r>
       <r>    2.0050    0.0000 </r>
       <r>    2.0054    0.0000 </r>
       <r>    2.0057    0.0000 </r>
       <r>    2.0059    0.0000 </r>
       <r>    2.0060    0.0000 </r>
       <r>    2.0063    0.0000 </r>
       <r>    2.0294    0.0000 </r>
       <r>    2.0340    0.0000 </r>
       <r>    2.0370    0.0000 </r>
       <r>    2.0434    0.0000 </r>
       <r>    2.0804    0.0000 </r>
       <r>    2.0813    0.0000 </r>
       <r>    2.0824    0.0000 </r>
       <r>    2.0826    0.0000 </r>
       <r>    2.1190    0.0000 </r>
       <r>    2.1337    0.0000 </r>
       <r>    2.1395    0.0000 </r>
       <r>    2.1428    0.0000 </r>
       <r>    2.1481    0.0000 </r>
       <r>    2.1783    0.0000 </r>
       <r>    2.2092    0.0000 </r>
       <r>    2.2118    0.0000 </r>
       <r>    2.2153    0.0000 </r>
       <r>    2.2250    0.0000 </r>
       <r>    2.2413    0.0000 </r>
       <r>    2.2465    0.0000 </r>
       <r>    2.2476    0.0000 </r>
       <r>    2.2477    0.0000 </r>
       <r>    2.2481    0.0000 </r>
       <r>    2.2499    0.0000 </r>
       <r>    2.2501    0.0000 </r>
       <r>    2.2510    0.0000 </r>
       <r>    2.2522    0.0000 </r>
       <r>    2.2532    0.0000 </r>
       <r>    2.2534    0.0000 </r>
       <r>    2.2534    0.0000 </r>
       <r>    2.2538    0.0000 </r>
       <r>    2.2539    0.0000 </r>
       <r>    2.2539    0.0000 </r>
       <r>    2.2540    0.0000 </r>
       <r>    2.2560    0.0000 </r>
       <r>    2.2633    0.0000 </r>
       <r>    2.2667    0.0000 </r>
       <r>    2.2712    0.0000 </r>
       <r>    2.2769    0.0000 </r>
       <r>    2.2771    0.0000 </r>
       <r>    2.2773    0.0000 </r>
       <r>    2.2773    0.0000 </r>
       <r>    2.2774    0.0000 </r>
       <r>    2.2775    0.0000 </r>
       <r>    2.2776    0.0000 </r>
       <r>    2.2784    0.0000 </r>
       <r>    2.2849    0.0000 </r>
       <r>    2.2851    0.0000 </r>
       <r>    2.2864    0.0000 </r>
       <r>    2.2873    0.0000 </r>
       <r>    2.2875    0.0000 </r>
       <r>    2.2879    0.0000 </r>
       <r>    2.2911    0.0000 </r>
       <r>    2.2915    0.0000 </r>
       <r>    2.2949    0.0000 </r>
       <r>    2.2954    0.0000 </r>
       <r>    2.3268    0.0000 </r>
       <r>    2.3335    0.0000 </r>
       <r>    2.3461    0.0000 </r>
       <r>    2.3465    0.0000 </r>
       <r>    2.3774    0.0000 </r>
       <r>    2.4259    0.0000 </r>
       <r>    2.4286    0.0000 </r>
       <r>    2.4341    0.0000 </r>
       <r>    2.4382    0.0000 </r>
       <r>    2.4422    0.0000 </r>
       <r>    2.4424    0.0000 </r>
       <r>    2.4429    0.0000 </r>
       <r>    2.4497    0.0000 </r>
       <r>    2.4670    0.0000 </r>
       <r>    2.5012    0.0000 </r>
       <r>    2.5024    0.0000 </r>
       <r>    2.5041    0.0000 </r>
       <r>    2.5042    0.0000 </r>
       <r>    2.5043    0.0000 </r>
       <r>    2.5049    0.0000 </r>
       <r>    2.5099    0.0000 </r>
       <r>    2.5130    0.0000 </r>
       <r>    2.5132    0.0000 </r>
       <r>    2.5135    0.0000 </r>
       <r>    2.5141    0.0000 </r>
       <r>    2.5405    0.0000 </r>
       <r>    2.5503    0.0000 </r>
       <r>    2.5565    0.0000 </r>
       <r>    2.5741    0.0000 </r>
       <r>    2.5752    0.0000 </r>
       <r>    2.5753    0.0000 </r>
       <r>    2.5757    0.0000 </r>
       <r>    2.5888    0.0000 </r>
       <r>    2.5904    0.0000 </r>
       <r>    2.5921    0.0000 </r>
       <r>    2.5922    0.0000 </r>
       <r>    2.5924    0.0000 </r>
       <r>    2.5935    0.0000 </r>
       <r>    2.6040    0.0000 </r>
       <r>    2.6087    0.0000 </r>
       <r>    2.6091    0.0000 </r>
       <r>    2.6172    0.0000 </r>
       <r>    2.6193    0.0000 </r>
       <r>    2.6198    0.0000 </r>
       <r>    2.6200    0.0000 </r>
       <r>    2.6200    0.0000 </r>
       <r>    2.6207    0.0000 </r>
       <r>    2.6303    0.0000 </r>
       <r>    2.6337    0.0000 </r>
       <r>    2.6369    0.0000 </r>
       <r>    2.6396    0.0000 </r>
       <r>    2.6405    0.0000 </r>
       <r>    2.6862    0.0000 </r>
       <r>    2.7158    0.0000 </r>
       <r>    2.7218    0.0000 </r>
       <r>    2.7366    0.0000 </r>
       <r>    2.7432    0.0000 </r>
       <r>    2.7445    0.0000 </r>
       <r>    2.7471    0.0000 </r>
       <r>    2.7479    0.0000 </r>
       <r>    2.7485    0.0000 </r>
       <r>    2.7531    0.0000 </r>
       <r>    2.7563    0.0000 </r>
       <r>    2.7609    0.0000 </r>
       <r>    2.7618    0.0000 </r>
       <r>    2.7639    0.0000 </r>
       <r>    2.7649    0.0000 </r>
       <r>    2.7654    0.0000 </r>
       <r>    2.7655    0.0000 </r>
       <r>    2.7661    0.0000 </r>
       <r>    2.7791    0.0000 </r>
       <r>    2.7820    0.0000 </r>
       <r>    2.7821    0.0000 </r>
       <r>    2.7834    0.0000 </r>
       <r>    2.7839    0.0000 </r>
       <r>    2.7851    0.0000 </r>
       <r>    2.7855    0.0000 </r>
       <r>    2.7855    0.0000 </r>
       <r>    2.7857    0.0000 </r>
       <r>    2.7868    0.0000 </r>
       <r>    2.7892    0.0000 </r>
       <r>    2.8120    0.0000 </r>
       <r>    2.8296    0.0000 </r>
       <r>    2.8747    0.0000 </r>
       <r>    2.8782    0.0000 </r>
       <r>    2.8816    0.0000 </r>
       <r>    2.8870    0.0000 </r>
       <r>    2.8885    0.0000 </r>
       <r>    2.8898    0.0000 </r>
       <r>    2.8936    0.0000 </r>
       <r>    2.8958    0.0000 </r>
       <r>    2.9151    0.0000 </r>
       <r>    2.9384    0.0000 </r>
       <r>    2.9392    0.0000 </r>
       <r>    2.9397    0.0000 </r>
       <r>    2.9411    0.0000 </r>
       <r>    2.9427    0.0000 </r>
       <r>    2.9430    0.0000 </r>
       <r>    2.9431    0.0000 </r>
       <r>    2.9432    0.0000 </r>
       <r>    2.9436    0.0000 </r>
       <r>    2.9462    0.0000 </r>
       <r>    2.9485    0.0000 </r>
       <r>    2.9672    0.0000 </r>
       <r>    2.9725    0.0000 </r>
       <r>    2.9736    0.0000 </r>
       <r>    2.9773    0.0000 </r>
       <r>    2.9838    0.0000 </r>
       <r>    3.0017    0.0000 </r>
       <r>    3.0049    0.0000 </r>
       <r>    3.0067    0.0000 </r>
       <r>    3.0078    0.0000 </r>
       <r>    3.0102    0.0000 </r>
       <r>    3.0112    0.0000 </r>
       <r>    3.0120    0.0000 </r>
       <r>    3.0130    0.0000 </r>
       <r>    3.0150    0.0000 </r>
       <r>    3.0156    0.0000 </r>
       <r>    3.0186    0.0000 </r>
       <r>    3.0244    0.0000 </r>
       <r>    3.0255    0.0000 </r>
       <r>    3.0282    0.0000 </r>
       <r>    3.0288    0.0000 </r>
       <r>    3.0292    0.0000 </r>
       <r>    3.0298    0.0000 </r>
       <r>    3.0318    0.0000 </r>
       <r>    3.0359    0.0000 </r>
       <r>    3.0368    0.0000 </r>
       <r>    3.0394    0.0000 </r>
       <r>    3.0400    0.0000 </r>
       <r>    3.0426    0.0000 </r>
       <r>    3.0428    0.0000 </r>
       <r>    3.0431    0.0000 </r>
       <r>    3.0432    0.0000 </r>
       <r>    3.0455    0.0000 </r>
       <r>    3.0579    0.0000 </r>
       <r>    3.0605    0.0000 </r>
       <r>    3.0639    0.0000 </r>
       <r>    3.0701    0.0000 </r>
       <r>    3.0760    0.0000 </r>
       <r>    3.0767    0.0000 </r>
       <r>    3.0774    0.0000 </r>
       <r>    3.0776    0.0000 </r>
       <r>    3.1015    0.0000 </r>
       <r>    3.1212    0.0000 </r>
       <r>    3.1450    0.0000 </r>
       <r>    3.1482    0.0000 </r>
       <r>    3.1511    0.0000 </r>
       <r>    3.1597    0.0000 </r>
       <r>    3.1628    0.0000 </r>
       <r>    3.1645    0.0000 </r>
       <r>    3.1650    0.0000 </r>
       <r>    3.1678    0.0000 </r>
       <r>    3.1753    0.0000 </r>
       <r>    3.1844    0.0000 </r>
       <r>    3.1851    0.0000 </r>
       <r>    3.1928    0.0000 </r>
       <r>    3.1937    0.0000 </r>
       <r>    3.1957    0.0000 </r>
       <r>    3.1988    0.0000 </r>
       <r>    3.2048    0.0000 </r>
       <r>    3.2083    0.0000 </r>
       <r>    3.2245    0.0000 </r>
       <r>    3.2274    0.0000 </r>
       <r>    3.2290    0.0000 </r>
       <r>    3.2295    0.0000 </r>
       <r>    3.2302    0.0000 </r>
       <r>    3.2313    0.0000 </r>
       <r>    3.2343    0.0000 </r>
       <r>    3.2351    0.0000 </r>
       <r>    3.2358    0.0000 </r>
       <r>    3.2375    0.0000 </r>
       <r>    3.2385    0.0000 </r>
       <r>    3.2467    0.0000 </r>
       <r>    3.2473    0.0000 </r>
       <r>    3.2478    0.0000 </r>
       <r>    3.2516    0.0000 </r>
       <r>    3.2524    0.0000 </r>
       <r>    3.2653    0.0000 </r>
       <r>    3.2706    0.0000 </r>
       <r>    3.2716    0.0000 </r>
       <r>    3.2729    0.0000 </r>
       <r>    3.2738    0.0000 </r>
       <r>    3.2795    0.0000 </r>
       <r>    3.2817    0.0000 </r>
       <r>    3.2836    0.0000 </r>
       <r>    3.2849    0.0000 </r>
       <r>    3.2874    0.0000 </r>
       <r>    3.2887    0.0000 </r>
       <r>    3.2940    0.0000 </r>
       <r>    3.2953    0.0000 </r>
       <r>    3.2967    0.0000 </r>
       <r>    3.2979    0.0000 </r>
       <r>    3.2981    0.0000 </r>
       <r>    3.3016    0.0000 </r>
       <r>    3.3068    0.0000 </r>
       <r>    3.3072    0.0000 </r>
       <r>    3.3080    0.0000 </r>
       <r>    3.3084    0.0000 </r>
       <r>    3.3086    0.0000 </r>
       <r>    3.3097    0.0000 </r>
       <r>    3.3107    0.0000 </r>
       <r>    3.3116    0.0000 </r>
       <r>    3.3117    0.0000 </r>
       <r>    3.3119    0.0000 </r>
       <r>    3.3127    0.0000 </r>
       <r>    3.3135    0.0000 </r>
       <r>    3.3138    0.0000 </r>
       <r>    3.3171    0.0000 </r>
       <r>    3.3177    0.0000 </r>
       <r>    3.3198    0.0000 </r>
       <r>    3.3206    0.0000 </r>
       <r>    3.3220    0.0000 </r>
       <r>    3.3229    0.0000 </r>
       <r>    3.3238    0.0000 </r>
       <r>    3.3251    0.0000 </r>
       <r>    3.3253    0.0000 </r>
       <r>    3.3254    0.0000 </r>
       <r>    3.3255    0.0000 </r>
       <r>    3.3257    0.0000 </r>
       <r>    3.3259    0.0000 </r>
       <r>    3.3260    0.0000 </r>
       <r>    3.3262    0.0000 </r>
       <r>    3.3263    0.0000 </r>
       <r>    3.3562    0.0000 </r>
       <r>    3.3673    0.0000 </r>
       <r>    3.3797    0.0000 </r>
       <r>    3.3800    0.0000 </r>
       <r>    3.3847    0.0000 </r>
       <r>    3.3914    0.0000 </r>
       <r>    3.4001    0.0000 </r>
       <r>    3.4046    0.0000 </r>
       <r>    3.4079    0.0000 </r>
       <r>    3.4091    0.0000 </r>
       <r>    3.4093    0.0000 </r>
       <r>    3.4095    0.0000 </r>
       <r>    3.4097    0.0000 </r>
       <r>    3.4101    0.0000 </r>
       <r>    3.4103    0.0000 </r>
       <r>    3.4112    0.0000 </r>
       <r>    3.4118    0.0000 </r>
       <r>    3.4209    0.0000 </r>
       <r>    3.4210    0.0000 </r>
       <r>    3.4241    0.0000 </r>
       <r>    3.4299    0.0000 </r>
       <r>    3.4342    0.0000 </r>
       <r>    3.4467    0.0000 </r>
       <r>    3.4513    0.0000 </r>
       <r>    3.4568    0.0000 </r>
       <r>    3.4581    0.0000 </r>
       <r>    3.4613    0.0000 </r>
       <r>    3.4738    0.0000 </r>
       <r>    3.4869    0.0000 </r>
       <r>    3.4904    0.0000 </r>
       <r>    3.4940    0.0000 </r>
       <r>    3.5069    0.0000 </r>
       <r>    3.5096    0.0000 </r>
       <r>    3.5190    0.0000 </r>
       <r>    3.5213    0.0000 </r>
       <r>    3.5400    0.0000 </r>
       <r>    3.5494    0.0000 </r>
       <r>    3.5598    0.0000 </r>
       <r>    3.5622    0.0000 </r>
       <r>    3.5672    0.0000 </r>
       <r>    3.5710    0.0000 </r>
       <r>    3.5717    0.0000 </r>
       <r>    3.5723    0.0000 </r>
       <r>    3.5744    0.0000 </r>
       <r>    3.5762    0.0000 </r>
       <r>    3.5849    0.0000 </r>
       <r>    3.5943    0.0000 </r>
       <r>    3.5958    0.0000 </r>
       <r>    3.5978    0.0000 </r>
       <r>    3.6034    0.0000 </r>
       <r>    3.6036    0.0000 </r>
       <r>    3.6052    0.0000 </r>
       <r>    3.6056    0.0000 </r>
       <r>    3.6062    0.0000 </r>
       <r>    3.6108    0.0000 </r>
       <r>    3.6148    0.0000 </r>
       <r>    3.6176    0.0000 </r>
       <r>    3.6204    0.0000 </r>
       <r>    3.6253    0.0000 </r>
       <r>    3.6254    0.0000 </r>
       <r>    3.6259    0.0000 </r>
       <r>    3.6264    0.0000 </r>
       <r>    3.6269    0.0000 </r>
       <r>    3.6291    0.0000 </r>
       <r>    3.6490    0.0000 </r>
       <r>    3.6541    0.0000 </r>
       <r>    3.6552    0.0000 </r>
       <r>    3.6577    0.0000 </r>
       <r>    3.6605    0.0000 </r>
       <r>    3.6644    0.0000 </r>
       <r>    3.6702    0.0000 </r>
       <r>    3.6709    0.0000 </r>
       <r>    3.6718    0.0000 </r>
       <r>    3.6725    0.0000 </r>
       <r>    3.6781    0.0000 </r>
       <r>    3.6829    0.0000 </r>
       <r>    3.6863    0.0000 </r>
       <r>    3.6907    0.0000 </r>
       <r>    3.6921    0.0000 </r>
       <r>    3.6954    0.0000 </r>
       <r>    3.6988    0.0000 </r>
       <r>    3.7001    0.0000 </r>
       <r>    3.7026    0.0000 </r>
       <r>    3.7032    0.0000 </r>
       <r>    3.7033    0.0000 </r>
       <r>    3.7047    0.0000 </r>
       <r>    3.7054    0.0000 </r>
       <r>    3.7068    0.0000 </r>
       <r>    3.7229    0.0000 </r>
       <r>    3.7242    0.0000 </r>
       <r>    3.7296    0.0000 </r>
       <r>    3.7306    0.0000 </r>
       <r>    3.7327    0.0000 </r>
       <r>    3.7386    0.0000 </r>
       <r>    3.7441    0.0000 </r>
       <r>    3.7468    0.0000 </r>
       <r>    3.7584    0.0000 </r>
       <r>    3.7625    0.0000 </r>
       <r>    3.7660    0.0000 </r>
       <r>    3.7669    0.0000 </r>
       <r>    3.7673    0.0000 </r>
       <r>    3.7674    0.0000 </r>
       <r>    3.7675    0.0000 </r>
       <r>    3.7741    0.0000 </r>
       <r>    3.7778    0.0000 </r>
       <r>    3.7817    0.0000 </r>
       <r>    3.7894    0.0000 </r>
       <r>    3.7928    0.0000 </r>
       <r>    3.7983    0.0000 </r>
       <r>    3.7995    0.0000 </r>
       <r>    3.8003    0.0000 </r>
       <r>    3.8067    0.0000 </r>
       <r>    3.8117    0.0000 </r>
       <r>    3.8128    0.0000 </r>
       <r>    3.8165    0.0000 </r>
       <r>    3.8166    0.0000 </r>
       <r>    3.8178    0.0000 </r>
       <r>    3.8187    0.0000 </r>
       <r>    3.8206    0.0000 </r>
       <r>    3.8240    0.0000 </r>
       <r>    3.8243    0.0000 </r>
       <r>    3.8249    0.0000 </r>
       <r>    3.8255    0.0000 </r>
       <r>    3.8256    0.0000 </r>
       <r>    3.8258    0.0000 </r>
       <r>    3.8272    0.0000 </r>
       <r>    3.8277    0.0000 </r>
       <r>    3.8282    0.0000 </r>
       <r>    3.8283    0.0000 </r>
       <r>    3.8285    0.0000 </r>
       <r>    3.8288    0.0000 </r>
       <r>    3.8293    0.0000 </r>
       <r>    3.8296    0.0000 </r>
       <r>    3.8308    0.0000 </r>
       <r>    3.8318    0.0000 </r>
       <r>    3.8331    0.0000 </r>
       <r>    3.8615    0.0000 </r>
       <r>    3.8736    0.0000 </r>
       <r>    3.8779    0.0000 </r>
       <r>    3.8809    0.0000 </r>
       <r>    3.8873    0.0000 </r>
       <r>    3.8915    0.0000 </r>
       <r>    3.8964    0.0000 </r>
       <r>    3.9029    0.0000 </r>
       <r>    3.9036    0.0000 </r>
       <r>    3.9093    0.0000 </r>
       <r>    3.9188    0.0000 </r>
       <r>    3.9259    0.0000 </r>
       <r>    3.9280    0.0000 </r>
       <r>    3.9296    0.0000 </r>
       <r>    3.9335    0.0000 </r>
       <r>    3.9508    0.0000 </r>
       <r>    3.9526    0.0000 </r>
       <r>    3.9615    0.0000 </r>
       <r>    3.9713    0.0000 </r>
       <r>    3.9729    0.0000 </r>
       <r>    3.9761    0.0000 </r>
       <r>    3.9791    0.0000 </r>
       <r>    3.9818    0.0000 </r>
       <r>    3.9879    0.0000 </r>
       <r>    3.9966    0.0000 </r>
       <r>    3.9974    0.0000 </r>
       <r>    3.9992    0.0000 </r>
       <r>    4.0016    0.0000 </r>
       <r>    4.0017    0.0000 </r>
       <r>    4.0027    0.0000 </r>
       <r>    4.0047    0.0000 </r>
       <r>    4.0057    0.0000 </r>
       <r>    4.0082    0.0000 </r>
       <r>    4.0447    0.0000 </r>
       <r>    4.0471    0.0000 </r>
       <r>    4.0498    0.0000 </r>
       <r>    4.0523    0.0000 </r>
       <r>    4.0534    0.0000 </r>
       <r>    4.0562    0.0000 </r>
       <r>    4.0589    0.0000 </r>
       <r>    4.0611    0.0000 </r>
       <r>    4.0615    0.0000 </r>
       <r>    4.0631    0.0000 </r>
       <r>    4.0660    0.0000 </r>
       <r>    4.0744    0.0000 </r>
       <r>    4.0868    0.0000 </r>
       <r>    4.0985    0.0000 </r>
       <r>    4.0991    0.0000 </r>
       <r>    4.0992    0.0000 </r>
       <r>    4.0994    0.0000 </r>
       <r>    4.1020    0.0000 </r>
       <r>    4.1041    0.0000 </r>
       <r>    4.1141    0.0000 </r>
       <r>    4.1200    0.0000 </r>
       <r>    4.1259    0.0000 </r>
       <r>    4.1291    0.0000 </r>
       <r>    4.1315    0.0000 </r>
       <r>    4.1391    0.0000 </r>
       <r>    4.1421    0.0000 </r>
       <r>    4.1441    0.0000 </r>
       <r>    4.1451    0.0000 </r>
       <r>    4.1463    0.0000 </r>
       <r>    4.1470    0.0000 </r>
       <r>    4.1481    0.0000 </r>
       <r>    4.1491    0.0000 </r>
       <r>    4.1507    0.0000 </r>
       <r>    4.1513    0.0000 </r>
       <r>    4.1533    0.0000 </r>
       <r>    4.1805    0.0000 </r>
       <r>    4.1874    0.0000 </r>
       <r>    4.1909    0.0000 </r>
       <r>    4.1940    0.0000 </r>
       <r>    4.1965    0.0000 </r>
       <r>    4.2046    0.0000 </r>
       <r>    4.2064    0.0000 </r>
       <r>    4.2094    0.0000 </r>
       <r>    4.2109    0.0000 </r>
       <r>    4.2139    0.0000 </r>
       <r>    4.2142    0.0000 </r>
       <r>    4.2143    0.0000 </r>
       <r>    4.2144    0.0000 </r>
       <r>    4.2146    0.0000 </r>
       <r>    4.2149    0.0000 </r>
       <r>    4.2160    0.0000 </r>
       <r>    4.2162    0.0000 </r>
       <r>    4.2218    0.0000 </r>
       <r>    4.2223    0.0000 </r>
       <r>    4.2231    0.0000 </r>
       <r>    4.2241    0.0000 </r>
       <r>    4.2244    0.0000 </r>
       <r>    4.2345    0.0000 </r>
       <r>    4.2476    0.0000 </r>
       <r>    4.2518    0.0000 </r>
       <r>    4.2570    0.0000 </r>
       <r>    4.2602    0.0000 </r>
       <r>    4.2612    0.0000 </r>
       <r>    4.2637    0.0000 </r>
       <r>    4.2665    0.0000 </r>
       <r>    4.2681    0.0000 </r>
       <r>    4.2696    0.0000 </r>
       <r>    4.2710    0.0000 </r>
       <r>    4.2730    0.0000 </r>
       <r>    4.2747    0.0000 </r>
       <r>    4.2757    0.0000 </r>
       <r>    4.2790    0.0000 </r>
       <r>    4.2800    0.0000 </r>
       <r>    4.2820    0.0000 </r>
       <r>    4.2833    0.0000 </r>
       <r>    4.2835    0.0000 </r>
       <r>    4.2845    0.0000 </r>
       <r>    4.2848    0.0000 </r>
       <r>    4.2850    0.0000 </r>
       <r>    4.2864    0.0000 </r>
       <r>    4.2897    0.0000 </r>
       <r>    4.2927    0.0000 </r>
       <r>    4.2959    0.0000 </r>
       <r>    4.2974    0.0000 </r>
       <r>    4.2977    0.0000 </r>
       <r>    4.2985    0.0000 </r>
       <r>    4.2987    0.0000 </r>
       <r>    4.3000    0.0000 </r>
       <r>    4.3045    0.0000 </r>
       <r>    4.3114    0.0000 </r>
       <r>    4.3135    0.0000 </r>
       <r>    4.3207    0.0000 </r>
       <r>    4.3231    0.0000 </r>
       <r>    4.3295    0.0000 </r>
       <r>    4.3315    0.0000 </r>
       <r>    4.3329    0.0000 </r>
       <r>    4.3343    0.0000 </r>
       <r>    4.3360    0.0000 </r>
       <r>    4.3387    0.0000 </r>
       <r>    4.3430    0.0000 </r>
       <r>    4.3463    0.0000 </r>
       <r>    4.3549    0.0000 </r>
       <r>    4.3611    0.0000 </r>
       <r>    4.3653    0.0000 </r>
       <r>    4.3696    0.0000 </r>
       <r>    4.3699    0.0000 </r>
       <r>    4.3714    0.0000 </r>
       <r>    4.3739    0.0000 </r>
       <r>    4.3764    0.0000 </r>
       <r>    4.3789    0.0000 </r>
       <r>    4.3801    0.0000 </r>
       <r>    4.3825    0.0000 </r>
       <r>    4.3836    0.0000 </r>
       <r>    4.3881    0.0000 </r>
       <r>    4.3892    0.0000 </r>
       <r>    4.3895    0.0000 </r>
       <r>    4.3912    0.0000 </r>
       <r>    4.3923    0.0000 </r>
       <r>    4.3951    0.0000 </r>
       <r>    4.3982    0.0000 </r>
       <r>    4.4005    0.0000 </r>
       <r>    4.4013    0.0000 </r>
       <r>    4.4022    0.0000 </r>
       <r>    4.4027    0.0000 </r>
       <r>    4.4031    0.0000 </r>
       <r>    4.4037    0.0000 </r>
       <r>    4.4041    0.0000 </r>
       <r>    4.4048    0.0000 </r>
       <r>    4.4080    0.0000 </r>
       <r>    4.4103    0.0000 </r>
       <r>    4.4121    0.0000 </r>
       <r>    4.4140    0.0000 </r>
       <r>    4.4161    0.0000 </r>
       <r>    4.4165    0.0000 </r>
       <r>    4.4170    0.0000 </r>
       <r>    4.4171    0.0000 </r>
       <r>    4.4180    0.0000 </r>
       <r>    4.4187    0.0000 </r>
       <r>    4.4217    0.0000 </r>
       <r>    4.4244    0.0000 </r>
       <r>    4.4378    0.0000 </r>
       <r>    4.4426    0.0000 </r>
       <r>    4.4453    0.0000 </r>
       <r>    4.4508    0.0000 </r>
       <r>    4.4546    0.0000 </r>
       <r>    4.4567    0.0000 </r>
       <r>    4.4590    0.0000 </r>
       <r>    4.4611    0.0000 </r>
       <r>    4.4647    0.0000 </r>
       <r>    4.4652    0.0000 </r>
       <r>    4.4673    0.0000 </r>
       <r>    4.4699    0.0000 </r>
       <r>    4.4704    0.0000 </r>
       <r>    4.4714    0.0000 </r>
       <r>    4.4717    0.0000 </r>
       <r>    4.4722    0.0000 </r>
       <r>    4.4729    0.0000 </r>
       <r>    4.4741    0.0000 </r>
       <r>    4.4793    0.0000 </r>
       <r>    4.4813    0.0000 </r>
       <r>    4.4843    0.0000 </r>
       <r>    4.4875    0.0000 </r>
       <r>    4.4883    0.0000 </r>
       <r>    4.4890    0.0000 </r>
       <r>    4.4907    0.0000 </r>
       <r>    4.4911    0.0000 </r>
       <r>    4.4917    0.0000 </r>
       <r>    4.4921    0.0000 </r>
       <r>    4.4925    0.0000 </r>
       <r>    4.4935    0.0000 </r>
       <r>    4.4960    0.0000 </r>
       <r>    4.4981    0.0000 </r>
       <r>    4.5012    0.0000 </r>
       <r>    4.5034    0.0000 </r>
       <r>    4.5038    0.0000 </r>
       <r>    4.5046    0.0000 </r>
       <r>    4.5050    0.0000 </r>
       <r>    4.5059    0.0000 </r>
       <r>    4.5067    0.0000 </r>
       <r>    4.5069    0.0000 </r>
       <r>    4.5074    0.0000 </r>
       <r>    4.5082    0.0000 </r>
       <r>    4.5089    0.0000 </r>
       <r>    4.5103    0.0000 </r>
       <r>    4.5111    0.0000 </r>
       <r>    4.5138    0.0000 </r>
       <r>    4.5164    0.0000 </r>
       <r>    4.5178    0.0000 </r>
       <r>    4.5192    0.0000 </r>
       <r>    4.5223    0.0000 </r>
       <r>    4.5230    0.0000 </r>
       <r>    4.5247    0.0000 </r>
       <r>    4.5254    0.0000 </r>
       <r>    4.5268    0.0000 </r>
       <r>    4.5278    0.0000 </r>
       <r>    4.5284    0.0000 </r>
       <r>    4.5292    0.0000 </r>
       <r>    4.5329    0.0000 </r>
       <r>    4.5349    0.0000 </r>
       <r>    4.5368    0.0000 </r>
       <r>    4.5392    0.0000 </r>
       <r>    4.5470    0.0000 </r>
       <r>    4.5517    0.0000 </r>
       <r>    4.5639    0.0000 </r>
       <r>    4.5686    0.0000 </r>
       <r>    4.5698    0.0000 </r>
       <r>    4.5706    0.0000 </r>
       <r>    4.5714    0.0000 </r>
       <r>    4.5724    0.0000 </r>
       <r>    4.5727    0.0000 </r>
       <r>    4.5740    0.0000 </r>
       <r>    4.5750    0.0000 </r>
       <r>    4.5758    0.0000 </r>
       <r>    4.5771    0.0000 </r>
       <r>    4.5804    0.0000 </r>
       <r>    4.5919    0.0000 </r>
       <r>    4.5994    0.0000 </r>
       <r>    4.6054    0.0000 </r>
       <r>    4.6125    0.0000 </r>
       <r>    4.6165    0.0000 </r>
       <r>    4.6221    0.0000 </r>
       <r>    4.6296    0.0000 </r>
       <r>    4.6355    0.0000 </r>
       <r>    4.6384    0.0000 </r>
       <r>    4.6529    0.0000 </r>
       <r>    4.6540    0.0000 </r>
       <r>    4.6603    0.0000 </r>
       <r>    4.6686    0.0000 </r>
       <r>    4.6762    0.0000 </r>
       <r>    4.6788    0.0000 </r>
       <r>    4.6837    0.0000 </r>
       <r>    4.6870    0.0000 </r>
       <r>    4.6885    0.0000 </r>
       <r>    4.6897    0.0000 </r>
       <r>    4.6912    0.0000 </r>
       <r>    4.6929    0.0000 </r>
       <r>    4.6957    0.0000 </r>
       <r>    4.6979    0.0000 </r>
       <r>    4.7046    0.0000 </r>
       <r>    4.7152    0.0000 </r>
       <r>    4.7232    0.0000 </r>
       <r>    4.7250    0.0000 </r>
       <r>    4.7298    0.0000 </r>
       <r>    4.7307    0.0000 </r>
       <r>    4.7415    0.0000 </r>
       <r>    4.7466    0.0000 </r>
       <r>    4.7504    0.0000 </r>
       <r>    4.7555    0.0000 </r>
       <r>    4.7606    0.0000 </r>
       <r>    4.7645    0.0000 </r>
       <r>    4.7713    0.0000 </r>
       <r>    4.7762    0.0000 </r>
       <r>    4.7812    0.0000 </r>
       <r>    4.7849    0.0000 </r>
       <r>    4.7872    0.0000 </r>
       <r>    4.7914    0.0000 </r>
       <r>    4.7958    0.0000 </r>
       <r>    4.7971    0.0000 </r>
       <r>    4.8030    0.0000 </r>
       <r>    4.8071    0.0000 </r>
       <r>    4.8091    0.0000 </r>
       <r>    4.8107    0.0000 </r>
       <r>    4.8126    0.0000 </r>
       <r>    4.8151    0.0000 </r>
       <r>    4.8189    0.0000 </r>
       <r>    4.8199    0.0000 </r>
       <r>    4.8222    0.0000 </r>
       <r>    4.8257    0.0000 </r>
       <r>    4.8266    0.0000 </r>
       <r>    4.8303    0.0000 </r>
       <r>    4.8305    0.0000 </r>
       <r>    4.8338    0.0000 </r>
       <r>    4.8356    0.0000 </r>
       <r>    4.8390    0.0000 </r>
       <r>    4.8404    0.0000 </r>
       <r>    4.8420    0.0000 </r>
       <r>    4.8442    0.0000 </r>
       <r>    4.8477    0.0000 </r>
       <r>    4.8509    0.0000 </r>
       <r>    4.8526    0.0000 </r>
       <r>    4.8558    0.0000 </r>
       <r>    4.8602    0.0000 </r>
       <r>    4.8610    0.0000 </r>
       <r>    4.8638    0.0000 </r>
       <r>    4.8666    0.0000 </r>
       <r>    4.8708    0.0000 </r>
       <r>    4.8720    0.0000 </r>
       <r>    4.8742    0.0000 </r>
       <r>    4.8836    0.0000 </r>
       <r>    4.8836    0.0000 </r>
       <r>    4.8875    0.0000 </r>
       <r>    4.8922    0.0000 </r>
       <r>    4.8940    0.0000 </r>
       <r>    4.8969    0.0000 </r>
       <r>    4.8991    0.0000 </r>
       <r>    4.9025    0.0000 </r>
       <r>    4.9035    0.0000 </r>
       <r>    4.9122    0.0000 </r>
       <r>    4.9154    0.0000 </r>
       <r>    4.9244    0.0000 </r>
       <r>    4.9271    0.0000 </r>
       <r>    4.9276    0.0000 </r>
       <r>    4.9295    0.0000 </r>
       <r>    4.9353    0.0000 </r>
       <r>    4.9378    0.0000 </r>
       <r>    4.9435    0.0000 </r>
       <r>    4.9469    0.0000 </r>
       <r>    4.9536    0.0000 </r>
       <r>    4.9581    0.0000 </r>
       <r>    4.9651    0.0000 </r>
       <r>    4.9724    0.0000 </r>
       <r>    4.9736    0.0000 </r>
       <r>    5.0007    0.0000 </r>
       <r>    5.0006    0.0000 </r>
       <r>    5.0140    0.0000 </r>
       <r>    5.0308    0.0000 </r>
      </set>
     </set>
    </set>
   </array>
  </eigenvalues>
  <separator name="orbital magnetization" >
   <v name="MAGDIPOLOUT">      0.00000000      0.00000000      0.00000000</v>
  </separator>
  <dos>
   <i name="efermi">     -1.46654761 </i>
   <total>
    <array>
     <dimension dim="1">gridpoints</dimension>
     <dimension dim="2">spin</dimension>
     <field>energy</field>
     <field>total</field>
     <field>integrated</field>
     <set>
      <set comment="spin 1">
       <r>   -20.2376     0.0000     0.0000 </r>
       <r>   -20.1493     0.0000     0.0000 </r>
       <r>   -20.0611     0.0000     0.0000 </r>
       <r>   -19.9728     0.0000     0.0000 </r>
       <r>   -19.8846    -0.0000    -0.0000 </r>
       <r>   -19.7964    -0.0000    -0.0000 </r>
       <r>   -19.7081    -0.0000    -0.0000 </r>
       <r>   -19.6199    -0.0000    -0.0000 </r>
       <r>   -19.5316    -0.0000    -0.0000 </r>
       <r>   -19.4434    -0.0000    -0.0000 </r>
       <r>   -19.3552    -0.0006    -0.0001 </r>
       <r>   -19.2669    -0.0544    -0.0049 </r>
       <r>   -19.1787    -0.6264    -0.0601 </r>
       <r>   -19.0904     2.9027     0.1960 </r>
       <r>   -19.0022    14.9291     1.5133 </r>
       <r>   -18.9140     6.3174     2.0708 </r>
       <r>   -18.8257    -0.6660     2.0120 </r>
       <r>   -18.7375    -0.1335     2.0002 </r>
       <r>   -18.6493    -0.0025     2.0000 </r>
       <r>   -18.5610    -0.0000     2.0000 </r>
       <r>   -18.4728    -0.0000     2.0000 </r>
       <r>   -18.3845    -0.0000     2.0000 </r>
       <r>   -18.2963    -0.0000     2.0000 </r>
       <r>   -18.2081    -0.0000     2.0000 </r>
       <r>   -18.1198    -0.0000     2.0000 </r>
       <r>   -18.0316    -0.0000     2.0000 </r>
       <r>   -17.9433    -0.0000     2.0000 </r>
       <r>   -17.8551    -0.0003     2.0000 </r>
       <r>   -17.7669    -0.0342     1.9970 </r>
       <r>   -17.6786    -0.5354     1.9497 </r>
       <r>   -17.5904     1.7044     2.1001 </r>
       <r>   -17.5022    14.1255     3.3465 </r>
       <r>   -17.4139     8.1366     4.0645 </r>
       <r>   -17.3257    -0.5341     4.0173 </r>
       <r>   -17.2374    -0.1920     4.0004 </r>
       <r>   -17.1492    -0.0046     4.0000 </r>
       <r>   -17.0610    -0.0000     4.0000 </r>
       <r>   -16.9727    -0.0000     4.0000 </r>
       <r>   -16.8845    -0.0000     4.0000 </r>
       <r>   -16.7962     0.0000     4.0000 </r>
       <r>   -16.7080     0.0000     4.0000 </r>
       <r>   -16.6198    -0.0000     4.0000 </r>
       <r>   -16.5315    -0.0000     4.0000 </r>
       <r>   -16.4433    -0.0000     4.0000 </r>
       <r>   -16.3550    -0.0000     4.0000 </r>
       <r>   -16.2668    -0.0000     4.0000 </r>
       <r>   -16.1786    -0.0000     4.0000 </r>
       <r>   -16.0903    -0.0003     4.0000 </r>
       <r>   -16.0021    -0.0365     3.9967 </r>
       <r>   -15.9139    -0.5489     3.9483 </r>
       <r>   -15.8256     1.8513     4.1117 </r>
       <r>   -15.7374    14.2618     5.3701 </r>
       <r>   -15.6491     7.8859     6.0660 </r>
       <r>   -15.5609    -0.5600     6.0165 </r>
       <r>   -15.4727    -0.1831     6.0004 </r>
       <r>   -15.3844    -0.0042     6.0000 </r>
       <r>   -15.2962    -0.0000     6.0000 </r>
       <r>   -15.2079    -0.0000     6.0000 </r>
       <r>   -15.1197    -0.0000     6.0000 </r>
       <r>   -15.0315     0.0000     6.0000 </r>
       <r>   -14.9432     0.0000     6.0000 </r>
       <r>   -14.8550     0.0000     6.0000 </r>
       <r>   -14.7668     0.0000     6.0000 </r>
       <r>   -14.6785     0.0000     6.0000 </r>
       <r>   -14.5903     0.0000     6.0000 </r>
       <r>   -14.5020     0.0000     6.0000 </r>
       <r>   -14.4138     0.0000     6.0000 </r>
       <r>   -14.3256     0.0000     6.0000 </r>
       <r>   -14.2373     0.0000     6.0000 </r>
       <r>   -14.1491    -0.0000     6.0000 </r>
       <r>   -14.0608    -0.0000     6.0000 </r>
       <r>   -13.9726    -0.0000     6.0000 </r>
       <r>   -13.8844    -0.0000     6.0000 </r>
       <r>   -13.7961    -0.0000     6.0000 </r>
       <r>   -13.7079    -0.0000     6.0000 </r>
       <r>   -13.6197    -0.0001     6.0000 </r>
       <r>   -13.5314    -0.0127     5.9989 </r>
       <r>   -13.4432    -0.3387     5.9690 </r>
       <r>   -13.3549     0.1322     5.9807 </r>
       <r>   -13.2667    11.4013     6.9867 </r>
       <r>   -13.1785    11.6364     8.0135 </r>
       <r>   -13.0902     0.2123     8.0322 </r>
       <r>   -13.0020    -0.4255     7.9946 </r>
       <r>   -12.9137    -0.6845     7.9342 </r>
       <r>   -12.8255     3.8732     8.2760 </r>
       <r>   -12.7373    15.1946     9.6168 </r>
       <r>   -12.6490     5.1372    10.0701 </r>
       <r>   -12.5608    -0.6902    10.0092 </r>
       <r>   -12.4725    -0.1022    10.0001 </r>
       <r>   -12.3843    -0.0016    10.0000 </r>
       <r>   -12.2961    -0.0000    10.0000 </r>
       <r>   -12.2078    -0.0000    10.0000 </r>
       <r>   -12.1196    -0.0000    10.0000 </r>
       <r>   -12.0314     0.0000    10.0000 </r>
       <r>   -11.9431    -0.0000    10.0000 </r>
       <r>   -11.8549    -0.0000    10.0000 </r>
       <r>   -11.7666    -0.0000    10.0000 </r>
       <r>   -11.6784    -0.0000    10.0000 </r>
       <r>   -11.5902    -0.0000    10.0000 </r>
       <r>   -11.5019    -0.0000    10.0000 </r>
       <r>   -11.4137    -0.0052     9.9995 </r>
       <r>   -11.3254    -0.2066     9.9813 </r>
       <r>   -11.2372    -0.5537     9.9325 </r>
       <r>   -11.1490     6.9834    10.5487 </r>
       <r>   -11.0607    15.3444    11.9026 </r>
       <r>   -10.9725    47.5817    16.1012 </r>
       <r>   -10.8843    55.6013    21.0074 </r>
       <r>   -10.7960    59.8946    26.2924 </r>
       <r>   -10.7078    20.9265    28.1389 </r>
       <r>   -10.6195    -2.5238    27.9162 </r>
       <r>   -10.5313    43.1647    31.7250 </r>
       <r>   -10.4431   110.4433    41.4704 </r>
       <r>   -10.3548   162.3168    55.7930 </r>
       <r>   -10.2666    88.9759    63.6441 </r>
       <r>   -10.1783    61.0952    69.0351 </r>
       <r>   -10.0901    60.4958    74.3731 </r>
       <r>   -10.0019    45.9425    78.4270 </r>
       <r>    -9.9136   127.4505    89.6731 </r>
       <r>    -9.8254   421.5107   126.8666 </r>
       <r>    -9.7371   503.7456   171.3165 </r>
       <r>    -9.6489   593.2065   223.6602 </r>
       <r>    -9.5607  1134.4063   323.7587 </r>
       <r>    -9.4724  1462.7877   452.8332 </r>
       <r>    -9.3842  1229.8856   561.3566 </r>
       <r>    -9.2960  1630.0786   705.1926 </r>
       <r>    -9.2077  2475.0153   923.5846 </r>
       <r>    -9.1195  2729.2561  1164.4105 </r>
       <r>    -9.0312  2277.9518  1365.4139 </r>
       <r>    -8.9430  1806.8365  1524.8468 </r>
       <r>    -8.8548  1611.5166  1667.0449 </r>
       <r>    -8.7665  2099.3310  1852.2870 </r>
       <r>    -8.6783  1748.9769  2006.6144 </r>
       <r>    -8.5900  2053.9162  2187.8492 </r>
       <r>    -8.5018  2439.0890  2403.0712 </r>
       <r>    -8.4136  2127.3286  2590.7838 </r>
       <r>    -8.3253  1784.1683  2748.2164 </r>
       <r>    -8.2371  1629.6491  2892.0145 </r>
       <r>    -8.1489  1649.9744  3037.6060 </r>
       <r>    -8.0606  2022.9912  3216.1121 </r>
       <r>    -7.9724  2453.1121  3432.5714 </r>
       <r>    -7.8841  1797.8450  3591.2108 </r>
       <r>    -7.7959  1498.3433  3723.4227 </r>
       <r>    -7.7077  2434.4368  3938.2341 </r>
       <r>    -7.6194  2240.6291  4135.9442 </r>
       <r>    -7.5312  1661.4563  4282.5489 </r>
       <r>    -7.4429  2250.2101  4481.1045 </r>
       <r>    -7.3547  2442.9826  4696.6700 </r>
       <r>    -7.2665  2224.8104  4892.9843 </r>
       <r>    -7.1782  2665.9570  5128.2248 </r>
       <r>    -7.0900  3241.4683  5414.2476 </r>
       <r>    -7.0018  2985.4863  5677.6829 </r>
       <r>    -6.9135  2546.0581  5902.3437 </r>
       <r>    -6.8253  2389.7037  6113.2079 </r>
       <r>    -6.7370  1878.2321  6278.9406 </r>
       <r>    -6.6488  2033.0185  6458.3315 </r>
       <r>    -6.5606  2372.5194  6667.6794 </r>
       <r>    -6.4723  1853.9649  6831.2708 </r>
       <r>    -6.3841  2048.5763  7012.0344 </r>
       <r>    -6.2958  2421.3626  7225.6922 </r>
       <r>    -6.2076  2223.2981  7421.8731 </r>
       <r>    -6.1194  1961.9648  7594.9942 </r>
       <r>    -6.0311  2813.1378  7843.2217 </r>
       <r>    -5.9429  3298.5667  8134.2829 </r>
       <r>    -5.8546  2344.6052  8341.1677 </r>
       <r>    -5.7664  1875.0927  8506.6234 </r>
       <r>    -5.6782  2259.7641  8706.0219 </r>
       <r>    -5.5899  2521.5342  8928.5188 </r>
       <r>    -5.5017  1653.5567  9074.4264 </r>
       <r>    -5.4135  2149.4158  9264.0880 </r>
       <r>    -5.3252  3202.2975  9546.6544 </r>
       <r>    -5.2370  2566.9363  9773.1575 </r>
       <r>    -5.1487  2138.9163  9961.8926 </r>
       <r>    -5.0605  2174.3983 10153.7586 </r>
       <r>    -4.9723  2647.9056 10387.4062 </r>
       <r>    -4.8840  2917.2272 10644.8185 </r>
       <r>    -4.7958  3763.0208 10976.8624 </r>
       <r>    -4.7075  3445.8686 11280.9212 </r>
       <r>    -4.6193  2320.3698 11485.6676 </r>
       <r>    -4.5311  1884.3716 11651.9420 </r>
       <r>    -4.4428  1113.5481 11750.2000 </r>
       <r>    -4.3546   378.6003 11783.6072 </r>
       <r>    -4.2664    53.1057 11788.2932 </r>
       <r>    -4.1781   141.6942 11800.7961 </r>
       <r>    -4.0899   391.6816 11835.3575 </r>
       <r>    -4.0016   297.2059 11861.5826 </r>
       <r>    -3.9134   406.9032 11897.4872 </r>
       <r>    -3.8252   582.8285 11948.9152 </r>
       <r>    -3.7369   441.6476 11987.8856 </r>
       <r>    -3.6487   269.5131 12011.6671 </r>
       <r>    -3.5604    33.9630 12014.6639 </r>
       <r>    -3.4722   120.1448 12025.2653 </r>
       <r>    -3.3840   175.0126 12040.7082 </r>
       <r>    -3.2957   197.0889 12058.0991 </r>
       <r>    -3.2075   247.6085 12079.9477 </r>
       <r>    -3.1192   154.0332 12093.5394 </r>
       <r>    -3.0310    15.2936 12094.8889 </r>
       <r>    -2.9428   137.9323 12107.0598 </r>
       <r>    -2.8545   151.3049 12120.4108 </r>
       <r>    -2.7663   464.4906 12161.3968 </r>
       <r>    -2.6781   652.6617 12218.9868 </r>
       <r>    -2.5898   284.3096 12244.0739 </r>
       <r>    -2.5016   124.4194 12255.0525 </r>
       <r>    -2.4133   262.3085 12278.1983 </r>
       <r>    -2.3251   371.0877 12310.9425 </r>
       <r>    -2.2369   302.9136 12337.6712 </r>
       <r>    -2.1486   237.1330 12358.5955 </r>
       <r>    -2.0604   241.3001 12379.8875 </r>
       <r>    -1.9721    80.7002 12387.0084 </r>
       <r>    -1.8839   103.3967 12396.1320 </r>
       <r>    -1.7957   227.4925 12416.2056 </r>
       <r>    -1.7074   210.5781 12434.7868 </r>
       <r>    -1.6192   194.2921 12451.9308 </r>
       <r>    -1.5310   189.6216 12468.6628 </r>
       <r>    -1.4427   605.1080 12522.0567 </r>
       <r>    -1.3545   463.7536 12562.9777 </r>
       <r>    -1.2662   261.5030 12586.0524 </r>
       <r>    -1.1780   368.9084 12618.6044 </r>
       <r>    -1.0898   337.1644 12648.3553 </r>
       <r>    -1.0015   247.9607 12670.2350 </r>
       <r>    -0.9133   270.0798 12694.0665 </r>
       <r>    -0.8250   136.0457 12706.0710 </r>
       <r>    -0.7368   135.5088 12718.0281 </r>
       <r>    -0.6486   422.4326 12755.3030 </r>
       <r>    -0.5603   459.0045 12795.8050 </r>
       <r>    -0.4721   214.9991 12814.7762 </r>
       <r>    -0.3839    91.4953 12822.8496 </r>
       <r>    -0.2956   111.2453 12832.6657 </r>
       <r>    -0.2074   327.3256 12861.5485 </r>
       <r>    -0.1191   260.8244 12884.5633 </r>
       <r>    -0.0309   288.6554 12910.0339 </r>
       <r>     0.0573   655.9769 12967.9164 </r>
       <r>     0.1456   563.6361 13017.6509 </r>
       <r>     0.2338   188.3208 13034.2681 </r>
       <r>     0.3221   116.9508 13044.5877 </r>
       <r>     0.4103   371.2318 13077.3447 </r>
       <r>     0.4985   235.7227 13098.1445 </r>
       <r>     0.5868   206.3562 13116.3531 </r>
       <r>     0.6750   264.1556 13139.6619 </r>
       <r>     0.7633   161.6100 13153.9221 </r>
       <r>     0.8515   161.9390 13168.2114 </r>
       <r>     0.9397   353.0756 13199.3663 </r>
       <r>     1.0280   445.5331 13238.6796 </r>
       <r>     1.1162   406.5896 13274.5565 </r>
       <r>     1.2044   243.1684 13296.0133 </r>
       <r>     1.2927   165.3885 13310.6070 </r>
       <r>     1.3809   168.5695 13325.4813 </r>
       <r>     1.4692   101.7935 13334.4635 </r>
       <r>     1.5574   393.0419 13369.1450 </r>
       <r>     1.6456   208.5103 13387.5436 </r>
       <r>     1.7339   198.2700 13405.0387 </r>
       <r>     1.8221   243.7696 13426.5486 </r>
       <r>     1.9104   205.4260 13444.6751 </r>
       <r>     1.9986   274.1709 13468.8676 </r>
       <r>     2.0868   237.2042 13489.7982 </r>
       <r>     2.1751   166.6366 13504.5020 </r>
       <r>     2.2633   497.5735 13548.4072 </r>
       <r>     2.3515   517.4997 13594.0707 </r>
       <r>     2.4398   182.5252 13610.1765 </r>
       <r>     2.5280   294.8836 13636.1966 </r>
       <r>     2.6163   413.5855 13672.6908 </r>
       <r>     2.7045   324.3637 13701.3122 </r>
       <r>     2.7927   402.1405 13736.7966 </r>
       <r>     2.8810   316.4590 13764.7205 </r>
       <r>     2.9692   395.0434 13799.5786 </r>
       <r>     3.0575   602.7670 13852.7660 </r>
       <r>     3.1457   391.3740 13887.3003 </r>
       <r>     3.2339   482.3960 13929.8663 </r>
       <r>     3.3222   854.7439 14005.2877 </r>
       <r>     3.4104   683.5254 14065.6011 </r>
       <r>     3.4987   376.7622 14098.8461 </r>
       <r>     3.5869   384.8621 14132.8058 </r>
       <r>     3.6751   587.2104 14184.6205 </r>
       <r>     3.7634   631.9366 14240.3817 </r>
       <r>     3.8516   675.2364 14299.9637 </r>
       <r>     3.9398   458.7462 14340.4428 </r>
       <r>     4.0281   398.2141 14375.5807 </r>
       <r>     4.1163   459.7732 14416.1505 </r>
       <r>     4.2046   566.5723 14466.1440 </r>
       <r>     4.2928   754.3175 14532.7040 </r>
       <r>     4.3810   812.4720 14604.3955 </r>
       <r>     4.4693   980.8362 14690.9431 </r>
       <r>     4.5575  1003.0164 14779.4480 </r>
       <r>     4.6458   539.1187 14827.0191 </r>
       <r>     4.7340   394.9792 14861.8715 </r>
       <r>     4.8222   563.8236 14911.6225 </r>
       <r>     4.9105   652.2855 14969.1793 </r>
       <r>     4.9987   369.9900 15001.8268 </r>
       <r>     5.0869    79.9415 15008.8807 </r>
       <r>     5.1752    -6.9609 15008.2665 </r>
       <r>     5.2634    -2.8929 15008.0112 </r>
       <r>     5.3517    -0.1260 15008.0001 </r>
       <r>     5.4399    -0.0011 15008.0000 </r>
       <r>     5.5281    -0.0000 15008.0000 </r>
       <r>     5.6164    -0.0000 15008.0000 </r>
       <r>     5.7046    -0.0000 15008.0000 </r>
       <r>     5.7929     0.0000 15008.0000 </r>
       <r>     5.8811     0.0000 15008.0000 </r>
       <r>     5.9693     0.0000 15008.0000 </r>
       <r>     6.0576     0.0000 15008.0000 </r>
       <r>     6.1458     0.0000 15008.0000 </r>
       <r>     6.2340     0.0000 15008.0000 </r>
      </set>
     </set>
    </array>
   </total>
  </dos>
 </calculation>
 <structure name="finalpos" >
  <crystal>
   <varray name="basis" >
    <v>      33.93000000       0.00000000       0.00000000 </v>
    <v>       0.00000000      33.93000000       0.00000000 </v>
    <v>       0.00000000       0.00000000      50.00000000 </v>
   </varray>
   <i name="volume">  57562.24500000 </i>
   <varray name="rec_basis" >
    <v>       0.02947244       0.00000000       0.00000000 </v>
    <v>       0.00000000       0.02947244       0.00000000 </v>
    <v>       0.00000000       0.00000000       0.02000000 </v>
   </varray>
  </crystal>
  <varray name="positions" >
   <v>       0.02777778       0.02777778       0.36805000 </v>
   <v>       0.08333333       0.08333333       0.36805000 </v>
   <v>       0.02777778       0.08333333       0.40575000 </v>
   <v>       0.08333333       0.02777778       0.40575000 </v>
   <v>       0.02777778       0.02777778       0.44345000 </v>
   <v>       0.08333333       0.08333333       0.44345000 </v>
   <v>       0.02777778       0.08333333       0.48115000 </v>
   <v>       0.08333333       0.02777778       0.48115000 </v>
   <v>       0.02777778       0.02777778       0.51885000 </v>
   <v>       0.08333333       0.08333333       0.51885000 </v>
   <v>       0.02777778       0.08333333       0.55655000 </v>
   <v>       0.08333333       0.02777778       0.55655000 </v>
   <v>       0.02777778       0.02777778       0.59425000 </v>
   <v>       0.08333333       0.08333333       0.59425000 </v>
   <v>       0.02777778       0.13888889       0.36805000 </v>
   <v>       0.08333333       0.19444444       0.36805000 </v>
   <v>       0.02777778       0.19444444       0.40575000 </v>
   <v>       0.08333333       0.13888889       0.40575000 </v>
   <v>       0.02777778       0.13888889       0.44345000 </v>
   <v>       0.08333333       0.19444444       0.44345000 </v>
   <v>       0.02777778       0.19444444       0.48115000 </v>
   <v>       0.08333333       0.13888889       0.48115000 </v>
   <v>       0.02777778       0.13888889       0.51885000 </v>
   <v>       0.08333333       0.19444444       0.51885000 </v>
   <v>       0.02777778       0.19444444       0.55655000 </v>
   <v>       0.08333333       0.13888889       0.55655000 </v>
   <v>       0.02777778       0.13888889       0.59425000 </v>
   <v>       0.08333333       0.19444444       0.59425000 </v>
   <v>       0.02777778       0.25000000       0.36805000 </v>
   <v>       0.08333333       0.30555556       0.36805000 </v>
   <v>       0.02777778       0.30555556       0.40575000 </v>
   <v>       0.08333333       0.25000000       0.40575000 </v>
   <v>       0.02777778       0.25000000       0.44345000 </v>
   <v>       0.08333333       0.30555556       0.44345000 </v>
   <v>       0.02777778       0.30555556       0.48115000 </v>
   <v>       0.08333333       0.25000000       0.48115000 </v>
   <v>       0.02777778       0.25000000       0.51885000 </v>
   <v>       0.08333333       0.30555556       0.51885000 </v>
   <v>       0.02777778       0.30555556       0.55655000 </v>
   <v>       0.08333333       0.25000000       0.55655000 </v>
   <v>       0.02777778       0.25000000       0.59425000 </v>
   <v>       0.08333333       0.30555556       0.59425000 </v>
   <v>       0.02777778       0.36111111       0.36805000 </v>
   <v>       0.08333333       0.41666667       0.36805000 </v>
   <v>       0.02777778       0.41666667       0.40575000 </v>
   <v>       0.08333333       0.36111111       0.40575000 </v>
   <v>       0.02777778       0.36111111       0.44345000 </v>
   <v>       0.08333333       0.41666667       0.44345000 </v>
   <v>       0.02777778       0.41666667       0.48115000 </v>
   <v>       0.08333333       0.36111111       0.48115000 </v>
   <v>       0.02777778       0.36111111       0.51885000 </v>
   <v>       0.08333333       0.41666667       0.51885000 </v>
   <v>       0.02777778       0.41666667       0.55655000 </v>
   <v>       0.08333333       0.36111111       0.55655000 </v>
   <v>       0.02777778       0.36111111       0.59425000 </v>
   <v>       0.08333333       0.41666667       0.59425000 </v>
   <v>       0.02777778       0.47222222       0.36805000 </v>
   <v>       0.08333333       0.52777778       0.36805000 </v>
   <v>       0.02777778       0.52777778       0.40575000 </v>
   <v>       0.08333333       0.47222222       0.40575000 </v>
   <v>       0.02777778       0.47222222       0.44345000 </v>
   <v>       0.08333333       0.52777778       0.44345000 </v>
   <v>       0.02777778       0.52777778       0.48115000 </v>
   <v>       0.08333333       0.47222222       0.48115000 </v>
   <v>       0.02777778       0.47222222       0.51885000 </v>
   <v>       0.08333333       0.52777778       0.51885000 </v>
   <v>       0.02777778       0.52777778       0.55655000 </v>
   <v>       0.08333333       0.47222222       0.55655000 </v>
   <v>       0.02777778       0.47222222       0.59425000 </v>
   <v>       0.08333333       0.52777778       0.59425000 </v>
   <v>       0.02777778       0.58333333       0.36805000 </v>
   <v>       0.08333333       0.63888889       0.36805000 </v>
   <v>       0.02777778       0.63888889       0.40575000 </v>
   <v>       0.08333333       0.58333333       0.40575000 </v>
   <v>       0.02777778       0.58333333       0.44345000 </v>
   <v>       0.08333333       0.63888889       0.44345000 </v>
   <v>       0.02777778       0.63888889       0.48115000 </v>
   <v>       0.08333333       0.58333333       0.48115000 </v>
   <v>       0.02777778       0.58333333       0.51885000 </v>
   <v>       0.08333333       0.63888889       0.51885000 </v>
   <v>       0.02777778       0.63888889       0.55655000 </v>
   <v>       0.08333333       0.58333333       0.55655000 </v>
   <v>       0.02777778       0.58333333       0.59425000 </v>
   <v>       0.08333333       0.63888889       0.59425000 </v>
   <v>       0.02777778       0.69444444       0.36805000 </v>
   <v>       0.08333333       0.75000000       0.36805000 </v>
   <v>       0.02777778       0.75000000       0.40575000 </v>
   <v>       0.08333333       0.69444444       0.40575000 </v>
   <v>       0.02777778       0.69444444       0.44345000 </v>
   <v>       0.08333333       0.75000000       0.44345000 </v>
   <v>       0.02777778       0.75000000       0.48115000 </v>
   <v>       0.08333333       0.69444444       0.48115000 </v>
   <v>       0.02777778       0.69444444       0.51885000 </v>
   <v>       0.08333333       0.75000000       0.51885000 </v>
   <v>       0.02777778       0.75000000       0.55655000 </v>
   <v>       0.08333333       0.69444444       0.55655000 </v>
   <v>       0.02777778       0.69444444       0.59425000 </v>
   <v>       0.08333333       0.75000000       0.59425000 </v>
   <v>       0.02777778       0.80555556       0.36805000 </v>
   <v>       0.08333333       0.86111111       0.36805000 </v>
   <v>       0.02777778       0.86111111       0.40575000 </v>
   <v>       0.08333333       0.80555556       0.40575000 </v>
   <v>       0.02777778       0.80555556       0.44345000 </v>
   <v>       0.08333333       0.86111111       0.44345000 </v>
   <v>       0.02777778       0.86111111       0.48115000 </v>
   <v>       0.08333333       0.80555556       0.48115000 </v>
   <v>       0.02777778       0.80555556       0.51885000 </v>
   <v>       0.08333333       0.86111111       0.51885000 </v>
   <v>       0.02777778       0.86111111       0.55655000 </v>
   <v>       0.08333333       0.80555556       0.55655000 </v>
   <v>       0.02777778       0.80555556       0.59425000 </v>
   <v>       0.08333333       0.86111111       0.59425000 </v>
   <v>       0.02777778       0.91666667       0.36805000 </v>
   <v>       0.08333333       0.97222222       0.36805000 </v>
   <v>       0.02777778       0.97222222       0.40575000 </v>
   <v>       0.08333333       0.91666667       0.40575000 </v>
   <v>       0.02777778       0.91666667       0.44345000 </v>
   <v>       0.08333333       0.97222222       0.44345000 </v>
   <v>       0.02777778       0.97222222       0.48115000 </v>
   <v>       0.08333333       0.91666667       0.48115000 </v>
   <v>       0.02777778       0.91666667       0.51885000 </v>
   <v>       0.08333333       0.97222222       0.51885000 </v>
   <v>       0.02777778       0.97222222       0.55655000 </v>
   <v>       0.08333333       0.91666667       0.55655000 </v>
   <v>       0.02777778       0.91666667       0.59425000 </v>
   <v>       0.08333333       0.97222222       0.59425000 </v>
   <v>       0.13888889       0.02777778       0.36805000 </v>
   <v>       0.19444444       0.08333333       0.36805000 </v>
   <v>       0.13888889       0.08333333       0.40575000 </v>
   <v>       0.19444444       0.02777778       0.40575000 </v>
   <v>       0.13888889       0.02777778       0.44345000 </v>
   <v>       0.19444444       0.08333333       0.44345000 </v>
   <v>       0.13888889       0.08333333       0.48115000 </v>
   <v>       0.19444444       0.02777778       0.48115000 </v>
   <v>       0.13888889       0.02777778       0.51885000 </v>
   <v>       0.19444444       0.08333333       0.51885000 </v>
   <v>       0.13888889       0.08333333       0.55655000 </v>
   <v>       0.19444444       0.02777778       0.55655000 </v>
   <v>       0.13888889       0.02777778       0.59425000 </v>
   <v>       0.19444444       0.08333333       0.59425000 </v>
   <v>       0.13888889       0.13888889       0.36805000 </v>
   <v>       0.19444444       0.19444444       0.36805000 </v>
   <v>       0.13888889       0.19444444       0.40575000 </v>
   <v>       0.19444444       0.13888889       0.40575000 </v>
   <v>       0.13888889       0.13888889       0.44345000 </v>
   <v>       0.19444444       0.19444444       0.44345000 </v>
   <v>       0.13888889       0.19444444       0.48115000 </v>
   <v>       0.19444444       0.13888889       0.48115000 </v>
   <v>       0.13888889       0.13888889       0.51885000 </v>
   <v>       0.19444444       0.19444444       0.51885000 </v>
   <v>       0.13888889       0.19444444       0.55655000 </v>
   <v>       0.19444444       0.13888889       0.55655000 </v>
   <v>       0.13888889       0.13888889       0.59425000 </v>
   <v>       0.19444444       0.19444444       0.59425000 </v>
   <v>       0.13888889       0.25000000       0.36805000 </v>
   <v>       0.19444444       0.30555556       0.36805000 </v>
   <v>       0.13888889       0.30555556       0.40575000 </v>
   <v>       0.19444444       0.25000000       0.40575000 </v>
   <v>       0.13888889       0.25000000       0.44345000 </v>
   <v>       0.19444444       0.30555556       0.44345000 </v>
   <v>       0.13888889       0.30555556       0.48115000 </v>
   <v>       0.19444444       0.25000000       0.48115000 </v>
   <v>       0.13888889       0.25000000       0.51885000 </v>
   <v>       0.19444444       0.30555556       0.51885000 </v>
   <v>       0.13888889       0.30555556       0.55655000 </v>
   <v>       0.19444444       0.25000000       0.55655000 </v>
   <v>       0.13888889       0.25000000       0.59425000 </v>
   <v>       0.19444444       0.30555556       0.59425000 </v>
   <v>       0.13888889       0.36111111       0.36805000 </v>
   <v>       0.19444444       0.41666667       0.36805000 </v>
   <v>       0.13888889       0.41666667       0.40575000 </v>
   <v>       0.19444444       0.36111111       0.40575000 </v>
   <v>       0.13888889       0.36111111       0.44345000 </v>
   <v>       0.19444444       0.41666667       0.44345000 </v>
   <v>       0.13888889       0.41666667       0.48115000 </v>
   <v>       0.19444444       0.36111111       0.48115000 </v>
   <v>       0.13888889       0.36111111       0.51885000 </v>
   <v>       0.19444444       0.41666667       0.51885000 </v>
   <v>       0.13888889       0.41666667       0.55655000 </v>
   <v>       0.19444444       0.36111111       0.55655000 </v>
   <v>       0.13888889       0.36111111       0.59425000 </v>
   <v>       0.19444444       0.41666667       0.59425000 </v>
   <v>       0.13888889       0.47222222       0.36805000 </v>
   <v>       0.19444444       0.52777778       0.36805000 </v>
   <v>       0.13888889       0.52777778       0.40575000 </v>
   <v>       0.19444444       0.47222222       0.40575000 </v>
   <v>       0.13888889       0.47222222       0.44345000 </v>
   <v>       0.19444444       0.52777778       0.44345000 </v>
   <v>       0.13888889       0.52777778       0.48115000 </v>
   <v>       0.19444444       0.47222222       0.48115000 </v>
   <v>       0.13888889       0.47222222       0.51885000 </v>
   <v>       0.19444444       0.52777778       0.51885000 </v>
   <v>       0.13888889       0.52777778       0.55655000 </v>
   <v>       0.19444444       0.47222222       0.55655000 </v>
   <v>       0.13888889       0.47222222       0.59425000 </v>
   <v>       0.19444444       0.52777778       0.59425000 </v>
   <v>       0.13888889       0.58333333       0.36805000 </v>
   <v>       0.19444444       0.63888889       0.36805000 </v>
   <v>       0.13888889       0.63888889       0.40575000 </v>
   <v>       0.19444444       0.58333333       0.40575000 </v>
   <v>       0.13888889       0.58333333       0.44345000 </v>
   <v>       0.19444444       0.63888889       0.44345000 </v>
   <v>       0.13888889       0.63888889       0.48115000 </v>
   <v>       0.19444444       0.58333333       0.48115000 </v>
   <v>       0.13888889       0.58333333       0.51885000 </v>
   <v>       0.19444444       0.63888889       0.51885000 </v>
   <v>       0.13888889       0.63888889       0.55655000 </v>
   <v>       0.19444444       0.58333333       0.55655000 </v>
   <v>       0.13888889       0.58333333       0.59425000 </v>
   <v>       0.19444444       0.63888889       0.59425000 </v>
   <v>       0.13888889       0.69444444       0.36805000 </v>
   <v>       0.19444444       0.75000000       0.36805000 </v>
   <v>       0.13888889       0.75000000       0.40575000 </v>
   <v>       0.19444444       0.69444444       0.40575000 </v>
   <v>       0.13888889       0.69444444       0.44345000 </v>
   <v>       0.19444444       0.75000000       0.44345000 </v>
   <v>       0.13888889       0.75000000       0.48115000 </v>
   <v>       0.19444444       0.69444444       0.48115000 </v>
   <v>       0.13888889       0.69444444       0.51885000 </v>
   <v>       0.19444444       0.75000000       0.51885000 </v>
   <v>       0.13888889       0.75000000       0.55655000 </v>
   <v>       0.19444444       0.69444444       0.55655000 </v>
   <v>       0.13888889       0.69444444       0.59425000 </v>
   <v>       0.19444444       0.75000000       0.59425000 </v>
   <v>       0.13888889       0.80555556       0.36805000 </v>
   <v>       0.19444444       0.86111111       0.36805000 </v>
   <v>       0.13888889       0.86111111       0.40575000 </v>
   <v>       0.19444444       0.80555556       0.40575000 </v>
   <v>       0.13888889       0.80555556       0.44345000 </v>
   <v>       0.19444444       0.86111111       0.44345000 </v>
   <v>       0.13888889       0.86111111       0.48115000 </v>
   <v>       0.19444444       0.80555556       0.48115000 </v>
   <v>       0.13888889       0.80555556       0.51885000 </v>
   <v>       0.19444444       0.86111111       0.51885000 </v>
   <v>       0.13888889       0.86111111       0.55655000 </v>
   <v>       0.19444444       0.80555556       0.55655000 </v>
   <v>       0.13888889       0.80555556       0.59425000 </v>
   <v>       0.19444444       0.86111111       0.59425000 </v>
   <v>       0.13888889       0.91666667       0.36805000 </v>
   <v>       0.19444444       0.97222222       0.36805000 </v>
   <v>       0.13888889       0.97222222       0.40575000 </v>
   <v>       0.19444444       0.91666667       0.40575000 </v>
   <v>       0.13888889       0.91666667       0.44345000 </v>
   <v>       0.19444444       0.97222222       0.44345000 </v>
   <v>       0.13888889       0.97222222       0.48115000 </v>
   <v>       0.19444444       0.91666667       0.48115000 </v>
   <v>       0.13888889       0.91666667       0.51885000 </v>
   <v>       0.19444444       0.97222222       0.51885000 </v>
   <v>       0.13888889       0.97222222       0.55655000 </v>
   <v>       0.19444444       0.91666667       0.55655000 </v>
   <v>       0.13888889       0.91666667       0.59425000 </v>
   <v>       0.19444444       0.97222222       0.59425000 </v>
   <v>       0.25000000       0.02777778       0.36805000 </v>
   <v>       0.30555556       0.08333333       0.36805000 </v>
   <v>       0.25000000       0.08333333       0.40575000 </v>
   <v>       0.30555556       0.02777778       0.40575000 </v>
   <v>       0.25000000       0.02777778       0.44345000 </v>
   <v>       0.30555556       0.08333333       0.44345000 </v>
   <v>       0.25000000       0.08333333       0.48115000 </v>
   <v>       0.30555556       0.02777778       0.48115000 </v>
   <v>       0.25000000       0.02777778       0.51885000 </v>
   <v>       0.30555556       0.08333333       0.51885000 </v>
   <v>       0.25000000       0.08333333       0.55655000 </v>
   <v>       0.30555556       0.02777778       0.55655000 </v>
   <v>       0.25000000       0.02777778       0.59425000 </v>
   <v>       0.30555556       0.08333333       0.59425000 </v>
   <v>       0.25000000       0.13888889       0.36805000 </v>
   <v>       0.30555556       0.19444444       0.36805000 </v>
   <v>       0.25000000       0.19444444       0.40575000 </v>
   <v>       0.30555556       0.13888889       0.40575000 </v>
   <v>       0.25000000       0.13888889       0.44345000 </v>
   <v>       0.30555556       0.19444444       0.44345000 </v>
   <v>       0.25000000       0.19444444       0.48115000 </v>
   <v>       0.30555556       0.13888889       0.48115000 </v>
   <v>       0.25000000       0.13888889       0.51885000 </v>
   <v>       0.30555556       0.19444444       0.51885000 </v>
   <v>       0.25000000       0.19444444       0.55655000 </v>
   <v>       0.30555556       0.13888889       0.55655000 </v>
   <v>       0.25000000       0.13888889       0.59425000 </v>
   <v>       0.30555556       0.19444444       0.59425000 </v>
   <v>       0.25000000       0.25000000       0.36805000 </v>
   <v>       0.30555556       0.30555556       0.36805000 </v>
   <v>       0.25000000       0.30555556       0.40575000 </v>
   <v>       0.30555556       0.25000000       0.40575000 </v>
   <v>       0.25000000       0.25000000       0.44345000 </v>
   <v>       0.30555556       0.30555556       0.44345000 </v>
   <v>       0.25000000       0.30555556       0.48115000 </v>
   <v>       0.30555556       0.25000000       0.48115000 </v>
   <v>       0.25000000       0.25000000       0.51885000 </v>
   <v>       0.30555556       0.30555556       0.51885000 </v>
   <v>       0.25000000       0.30555556       0.55655000 </v>
   <v>       0.30555556       0.25000000       0.55655000 </v>
   <v>       0.25000000       0.25000000       0.59425000 </v>
   <v>       0.30555556       0.30555556       0.59425000 </v>
   <v>       0.25000000       0.36111111       0.36805000 </v>
   <v>       0.30555556       0.41666667       0.36805000 </v>
   <v>       0.25000000       0.41666667       0.40575000 </v>
   <v>       0.30555556       0.36111111       0.40575000 </v>
   <v>       0.25000000       0.36111111       0.44345000 </v>
   <v>       0.30555556       0.41666667       0.44345000 </v>
   <v>       0.25000000       0.41666667       0.48115000 </v>
   <v>       0.30555556       0.36111111       0.48115000 </v>
   <v>       0.25000000       0.36111111       0.51885000 </v>
   <v>       0.30555556       0.41666667       0.51885000 </v>
   <v>       0.25000000       0.41666667       0.55655000 </v>
   <v>       0.30555556       0.36111111       0.55655000 </v>
   <v>       0.25000000       0.36111111       0.59425000 </v>
   <v>       0.30555556       0.41666667       0.59425000 </v>
   <v>       0.25000000       0.47222222       0.36805000 </v>
   <v>       0.30555556       0.52777778       0.36805000 </v>
   <v>       0.25000000       0.52777778       0.40575000 </v>
   <v>       0.30555556       0.47222222       0.40575000 </v>
   <v>       0.25000000       0.47222222       0.44345000 </v>
   <v>       0.30555556       0.52777778       0.44345000 </v>
   <v>       0.25000000       0.52777778       0.48115000 </v>
   <v>       0.30555556       0.47222222       0.48115000 </v>
   <v>       0.25000000       0.47222222       0.51885000 </v>
   <v>       0.30555556       0.52777778       0.51885000 </v>
   <v>       0.25000000       0.52777778       0.55655000 </v>
   <v>       0.30555556       0.47222222       0.55655000 </v>
   <v>       0.25000000       0.47222222       0.59425000 </v>
   <v>       0.30555556       0.52777778       0.59425000 </v>
   <v>       0.25000000       0.58333333       0.36805000 </v>
   <v>       0.30555556       0.63888889       0.36805000 </v>
   <v>       0.25000000       0.63888889       0.40575000 </v>
   <v>       0.30555556       0.58333333       0.40575000 </v>
   <v>       0.25000000       0.58333333       0.44345000 </v>
   <v>       0.30555556       0.63888889       0.44345000 </v>
   <v>       0.25000000       0.63888889       0.48115000 </v>
   <v>       0.30555556       0.58333333       0.48115000 </v>
   <v>       0.25000000       0.58333333       0.51885000 </v>
   <v>       0.30555556       0.63888889       0.51885000 </v>
   <v>       0.25000000       0.63888889       0.55655000 </v>
   <v>       0.30555556       0.58333333       0.55655000 </v>
   <v>       0.25000000       0.58333333       0.59425000 </v>
   <v>       0.30555556       0.63888889       0.59425000 </v>
   <v>       0.25000000       0.69444444       0.36805000 </v>
   <v>       0.30555556       0.75000000       0.36805000 </v>
   <v>       0.25000000       0.75000000       0.40575000 </v>
   <v>       0.30555556       0.69444444       0.40575000 </v>
   <v>       0.25000000       0.69444444       0.44345000 </v>
   <v>       0.30555556       0.75000000       0.44345000 </v>
   <v>       0.25000000       0.75000000       0.48115000 </v>
   <v>       0.30555556       0.69444444       0.48115000 </v>
   <v>       0.25000000       0.69444444       0.51885000 </v>
   <v>       0.30555556       0.75000000       0.51885000 </v>
   <v>       0.25000000       0.75000000       0.55655000 </v>
   <v>       0.30555556       0.69444444       0.55655000 </v>
   <v>       0.25000000       0.69444444       0.59425000 </v>
   <v>       0.30555556       0.75000000       0.59425000 </v>
   <v>       0.25000000       0.80555556       0.36805000 </v>
   <v>       0.30555556       0.86111111       0.36805000 </v>
   <v>       0.25000000       0.86111111       0.40575000 </v>
   <v>       0.30555556       0.80555556       0.40575000 </v>
   <v>       0.25000000       0.80555556       0.44345000 </v>
   <v>       0.30555556       0.86111111       0.44345000 </v>
   <v>       0.25000000       0.86111111       0.48115000 </v>
   <v>       0.30555556       0.80555556       0.48115000 </v>
   <v>       0.25000000       0.80555556       0.51885000 </v>
   <v>       0.30555556       0.86111111       0.51885000 </v>
   <v>       0.25000000       0.86111111       0.55655000 </v>
   <v>       0.30555556       0.80555556       0.55655000 </v>
   <v>       0.25000000       0.80555556       0.59425000 </v>
   <v>       0.30555556       0.86111111       0.59425000 </v>
   <v>       0.25000000       0.91666667       0.36805000 </v>
   <v>       0.30555556       0.97222222       0.36805000 </v>
   <v>       0.25000000       0.97222222       0.40575000 </v>
   <v>       0.30555556       0.91666667       0.40575000 </v>
   <v>       0.25000000       0.91666667       0.44345000 </v>
   <v>       0.30555556       0.97222222       0.44345000 </v>
   <v>       0.25000000       0.97222222       0.48115000 </v>
   <v>       0.30555556       0.91666667       0.48115000 </v>
   <v>       0.25000000       0.91666667       0.51885000 </v>
   <v>       0.30555556       0.97222222       0.51885000 </v>
   <v>       0.25000000       0.97222222       0.55655000 </v>
   <v>       0.30555556       0.91666667       0.55655000 </v>
   <v>       0.25000000       0.91666667       0.59425000 </v>
   <v>       0.30555556       0.97222222       0.59425000 </v>
   <v>       0.36111111       0.02777778       0.36805000 </v>
   <v>       0.41666667       0.08333333       0.36805000 </v>
   <v>       0.36111111       0.08333333       0.40575000 </v>
   <v>       0.41666667       0.02777778       0.40575000 </v>
   <v>       0.36111111       0.02777778       0.44345000 </v>
   <v>       0.41666667       0.08333333       0.44345000 </v>
   <v>       0.36111111       0.08333333       0.48115000 </v>
   <v>       0.41666667       0.02777778       0.48115000 </v>
   <v>       0.36111111       0.02777778       0.51885000 </v>
   <v>       0.41666667       0.08333333       0.51885000 </v>
   <v>       0.36111111       0.08333333       0.55655000 </v>
   <v>       0.41666667       0.02777778       0.55655000 </v>
   <v>       0.36111111       0.02777778       0.59425000 </v>
   <v>       0.41666667       0.08333333       0.59425000 </v>
   <v>       0.36111111       0.13888889       0.36805000 </v>
   <v>       0.41666667       0.19444444       0.36805000 </v>
   <v>       0.36111111       0.19444444       0.40575000 </v>
   <v>       0.41666667       0.13888889       0.40575000 </v>
   <v>       0.36111111       0.13888889       0.44345000 </v>
   <v>       0.41666667       0.19444444       0.44345000 </v>
   <v>       0.36111111       0.19444444       0.48115000 </v>
   <v>       0.41666667       0.13888889       0.48115000 </v>
   <v>       0.36111111       0.13888889       0.51885000 </v>
   <v>       0.41666667       0.19444444       0.51885000 </v>
   <v>       0.36111111       0.19444444       0.55655000 </v>
   <v>       0.41666667       0.13888889       0.55655000 </v>
   <v>       0.36111111       0.13888889       0.59425000 </v>
   <v>       0.41666667       0.19444444       0.59425000 </v>
   <v>       0.36111111       0.25000000       0.36805000 </v>
   <v>       0.41666667       0.30555556       0.36805000 </v>
   <v>       0.36111111       0.30555556       0.40575000 </v>
   <v>       0.41666667       0.25000000       0.40575000 </v>
   <v>       0.36111111       0.25000000       0.44345000 </v>
   <v>       0.41666667       0.30555556       0.44345000 </v>
   <v>       0.36111111       0.30555556       0.48115000 </v>
   <v>       0.41666667       0.25000000       0.48115000 </v>
   <v>       0.36111111       0.25000000       0.51885000 </v>
   <v>       0.41666667       0.30555556       0.51885000 </v>
   <v>       0.36111111       0.30555556       0.55655000 </v>
   <v>       0.41666667       0.25000000       0.55655000 </v>
   <v>       0.36111111       0.25000000       0.59425000 </v>
   <v>       0.41666667       0.30555556       0.59425000 </v>
   <v>       0.36111111       0.36111111       0.36805000 </v>
   <v>       0.41666667       0.41666667       0.36805000 </v>
   <v>       0.36111111       0.41666667       0.40575000 </v>
   <v>       0.41666667       0.36111111       0.40575000 </v>
   <v>       0.36111111       0.36111111       0.44345000 </v>
   <v>       0.41666667       0.41666667       0.44345000 </v>
   <v>       0.36111111       0.41666667       0.48115000 </v>
   <v>       0.41666667       0.36111111       0.48115000 </v>
   <v>       0.36111111       0.36111111       0.51885000 </v>
   <v>       0.41666667       0.41666667       0.51885000 </v>
   <v>       0.36111111       0.41666667       0.55655000 </v>
   <v>       0.41666667       0.36111111       0.55655000 </v>
   <v>       0.36111111       0.36111111       0.59425000 </v>
   <v>       0.41666667       0.41666667       0.59425000 </v>
   <v>       0.36111111       0.47222222       0.36805000 </v>
   <v>       0.41666667       0.52777778       0.36805000 </v>
   <v>       0.36111111       0.52777778       0.40575000 </v>
   <v>       0.41666667       0.47222222       0.40575000 </v>
   <v>       0.36111111       0.47222222       0.44345000 </v>
   <v>       0.41666667       0.52777778       0.44345000 </v>
   <v>       0.36111111       0.52777778       0.48115000 </v>
   <v>       0.41666667       0.47222222       0.48115000 </v>
   <v>       0.36111111       0.47222222       0.51885000 </v>
   <v>       0.41666667       0.52777778       0.51885000 </v>
   <v>       0.36111111       0.52777778       0.55655000 </v>
   <v>       0.41666667       0.47222222       0.55655000 </v>
   <v>       0.36111111       0.47222222       0.59425000 </v>
   <v>       0.41666667       0.52777778       0.59425000 </v>
   <v>       0.36111111       0.58333333       0.36805000 </v>
   <v>       0.41666667       0.63888889       0.36805000 </v>
   <v>       0.36111111       0.63888889       0.40575000 </v>
   <v>       0.41666667       0.58333333       0.40575000 </v>
   <v>       0.36111111       0.58333333       0.44345000 </v>
   <v>       0.41666667       0.63888889       0.44345000 </v>
   <v>       0.36111111       0.63888889       0.48115000 </v>
   <v>       0.41666667       0.58333333       0.48115000 </v>
   <v>       0.36111111       0.58333333       0.51885000 </v>
   <v>       0.41666667       0.63888889       0.51885000 </v>
   <v>       0.36111111       0.63888889       0.55655000 </v>
   <v>       0.41666667       0.58333333       0.55655000 </v>
   <v>       0.36111111       0.58333333       0.59425000 </v>
   <v>       0.41666667       0.63888889       0.59425000 </v>
   <v>       0.36111111       0.69444444       0.36805000 </v>
   <v>       0.41666667       0.75000000       0.36805000 </v>
   <v>       0.36111111       0.75000000       0.40575000 </v>
   <v>       0.41666667       0.69444444       0.40575000 </v>
   <v>       0.36111111       0.69444444       0.44345000 </v>
   <v>       0.41666667       0.75000000       0.44345000 </v>
   <v>       0.36111111       0.75000000       0.48115000 </v>
   <v>       0.41666667       0.69444444       0.48115000 </v>
   <v>       0.36111111       0.69444444       0.51885000 </v>
   <v>       0.41666667       0.75000000       0.51885000 </v>
   <v>       0.36111111       0.75000000       0.55655000 </v>
   <v>       0.41666667       0.69444444       0.55655000 </v>
   <v>       0.36111111       0.69444444       0.59425000 </v>
   <v>       0.41666667       0.75000000       0.59425000 </v>
   <v>       0.36111111       0.80555556       0.36805000 </v>
   <v>       0.41666667       0.86111111       0.36805000 </v>
   <v>       0.36111111       0.86111111       0.40575000 </v>
   <v>       0.41666667       0.80555556       0.40575000 </v>
   <v>       0.36111111       0.80555556       0.44345000 </v>
   <v>       0.41666667       0.86111111       0.44345000 </v>
   <v>       0.36111111       0.86111111       0.48115000 </v>
   <v>       0.41666667       0.80555556       0.48115000 </v>
   <v>       0.36111111       0.80555556       0.51885000 </v>
   <v>       0.41666667       0.86111111       0.51885000 </v>
   <v>       0.36111111       0.86111111       0.55655000 </v>
   <v>       0.41666667       0.80555556       0.55655000 </v>
   <v>       0.36111111       0.80555556       0.59425000 </v>
   <v>       0.41666667       0.86111111       0.59425000 </v>
   <v>       0.36111111       0.91666667       0.36805000 </v>
   <v>       0.41666667       0.97222222       0.36805000 </v>
   <v>       0.36111111       0.97222222       0.40575000 </v>
   <v>       0.41666667       0.91666667       0.40575000 </v>
   <v>       0.36111111       0.91666667       0.44345000 </v>
   <v>       0.41666667       0.97222222       0.44345000 </v>
   <v>       0.36111111       0.97222222       0.48115000 </v>
   <v>       0.41666667       0.91666667       0.48115000 </v>
   <v>       0.36111111       0.91666667       0.51885000 </v>
   <v>       0.41666667       0.97222222       0.51885000 </v>
   <v>       0.36111111       0.97222222       0.55655000 </v>
   <v>       0.41666667       0.91666667       0.55655000 </v>
   <v>       0.36111111       0.91666667       0.59425000 </v>
   <v>       0.41666667       0.97222222       0.59425000 </v>
   <v>       0.47222222       0.02777778       0.36805000 </v>
   <v>       0.52777778       0.08333333       0.36805000 </v>
   <v>       0.47222222       0.08333333       0.40575000 </v>
   <v>       0.52777778       0.02777778       0.40575000 </v>
   <v>       0.47222222       0.02777778       0.44345000 </v>
   <v>       0.52777778       0.08333333       0.44345000 </v>
   <v>       0.47222222       0.08333333       0.48115000 </v>
   <v>       0.52777778       0.02777778       0.48115000 </v>
   <v>       0.47222222       0.02777778       0.51885000 </v>
   <v>       0.52777778       0.08333333       0.51885000 </v>
   <v>       0.47222222       0.08333333       0.55655000 </v>
   <v>       0.52777778       0.02777778       0.55655000 </v>
   <v>       0.47222222       0.02777778       0.59425000 </v>
   <v>       0.52777778       0.08333333       0.59425000 </v>
   <v>       0.47222222       0.13888889       0.36805000 </v>
   <v>       0.52777778       0.19444444       0.36805000 </v>
   <v>       0.47222222       0.19444444       0.40575000 </v>
   <v>       0.52777778       0.13888889       0.40575000 </v>
   <v>       0.47222222       0.13888889       0.44345000 </v>
   <v>       0.52777778       0.19444444       0.44345000 </v>
   <v>       0.47222222       0.19444444       0.48115000 </v>
   <v>       0.52777778       0.13888889       0.48115000 </v>
   <v>       0.47222222       0.13888889       0.51885000 </v>
   <v>       0.52777778       0.19444444       0.51885000 </v>
   <v>       0.47222222       0.19444444       0.55655000 </v>
   <v>       0.52777778       0.13888889       0.55655000 </v>
   <v>       0.47222222       0.13888889       0.59425000 </v>
   <v>       0.52777778       0.19444444       0.59425000 </v>
   <v>       0.47222222       0.25000000       0.36805000 </v>
   <v>       0.52777778       0.30555556       0.36805000 </v>
   <v>       0.47222222       0.30555556       0.40575000 </v>
   <v>       0.52777778       0.25000000       0.40575000 </v>
   <v>       0.47222222       0.25000000       0.44345000 </v>
   <v>       0.52777778       0.30555556       0.44345000 </v>
   <v>       0.47222222       0.30555556       0.48115000 </v>
   <v>       0.52777778       0.25000000       0.48115000 </v>
   <v>       0.47222222       0.25000000       0.51885000 </v>
   <v>       0.52777778       0.30555556       0.51885000 </v>
   <v>       0.47222222       0.30555556       0.55655000 </v>
   <v>       0.52777778       0.25000000       0.55655000 </v>
   <v>       0.47222222       0.25000000       0.59425000 </v>
   <v>       0.52777778       0.30555556       0.59425000 </v>
   <v>       0.47222222       0.36111111       0.36805000 </v>
   <v>       0.52777778       0.41666667       0.36805000 </v>
   <v>       0.47222222       0.41666667       0.40575000 </v>
   <v>       0.52777778       0.36111111       0.40575000 </v>
   <v>       0.47222222       0.36111111       0.44345000 </v>
   <v>       0.52777778       0.41666667       0.44345000 </v>
   <v>       0.47222222       0.41666667       0.48115000 </v>
   <v>       0.52777778       0.36111111       0.48115000 </v>
   <v>       0.47222222       0.36111111       0.51885000 </v>
   <v>       0.52777778       0.41666667       0.51885000 </v>
   <v>       0.47222222       0.41666667       0.55655000 </v>
   <v>       0.52777778       0.36111111       0.55655000 </v>
   <v>       0.47222222       0.36111111       0.59425000 </v>
   <v>       0.52777778       0.41666667       0.59425000 </v>
   <v>       0.47222222       0.47222222       0.36805000 </v>
   <v>       0.52777778       0.52777778       0.36805000 </v>
   <v>       0.47222222       0.52777778       0.40575000 </v>
   <v>       0.52777778       0.47222222       0.40575000 </v>
   <v>       0.47222222       0.47222222       0.44345000 </v>
   <v>       0.52777778       0.52777778       0.44345000 </v>
   <v>       0.47222222       0.52777778       0.48115000 </v>
   <v>       0.52777778       0.47222222       0.48115000 </v>
   <v>       0.47222222       0.47222222       0.51885000 </v>
   <v>       0.52777778       0.52777778       0.51885000 </v>
   <v>       0.47222222       0.52777778       0.55655000 </v>
   <v>       0.52777778       0.47222222       0.55655000 </v>
   <v>       0.47222222       0.47222222       0.59425000 </v>
   <v>       0.52777778       0.52777778       0.59425000 </v>
   <v>       0.47222222       0.58333333       0.36805000 </v>
   <v>       0.52777778       0.63888889       0.36805000 </v>
   <v>       0.47222222       0.63888889       0.40575000 </v>
   <v>       0.52777778       0.58333333       0.40575000 </v>
   <v>       0.47222222       0.58333333       0.44345000 </v>
   <v>       0.52777778       0.63888889       0.44345000 </v>
   <v>       0.47222222       0.63888889       0.48115000 </v>
   <v>       0.52777778       0.58333333       0.48115000 </v>
   <v>       0.47222222       0.58333333       0.51885000 </v>
   <v>       0.52777778       0.63888889       0.51885000 </v>
   <v>       0.47222222       0.63888889       0.55655000 </v>
   <v>       0.52777778       0.58333333       0.55655000 </v>
   <v>       0.47222222       0.58333333       0.59425000 </v>
   <v>       0.52777778       0.63888889       0.59425000 </v>
   <v>       0.47222222       0.69444444       0.36805000 </v>
   <v>       0.52777778       0.75000000       0.36805000 </v>
   <v>       0.47222222       0.75000000       0.40575000 </v>
   <v>       0.52777778       0.69444444       0.40575000 </v>
   <v>       0.47222222       0.69444444       0.44345000 </v>
   <v>       0.52777778       0.75000000       0.44345000 </v>
   <v>       0.47222222       0.75000000       0.48115000 </v>
   <v>       0.52777778       0.69444444       0.48115000 </v>
   <v>       0.47222222       0.69444444       0.51885000 </v>
   <v>       0.52777778       0.75000000       0.51885000 </v>
   <v>       0.47222222       0.75000000       0.55655000 </v>
   <v>       0.52777778       0.69444444       0.55655000 </v>
   <v>       0.47222222       0.69444444       0.59425000 </v>
   <v>       0.52777778       0.75000000       0.59425000 </v>
   <v>       0.47222222       0.80555556       0.36805000 </v>
   <v>       0.52777778       0.86111111       0.36805000 </v>
   <v>       0.47222222       0.86111111       0.40575000 </v>
   <v>       0.52777778       0.80555556       0.40575000 </v>
   <v>       0.47222222       0.80555556       0.44345000 </v>
   <v>       0.52777778       0.86111111       0.44345000 </v>
   <v>       0.47222222       0.86111111       0.48115000 </v>
   <v>       0.52777778       0.80555556       0.48115000 </v>
   <v>       0.47222222       0.80555556       0.51885000 </v>
   <v>       0.52777778       0.86111111       0.51885000 </v>
   <v>       0.47222222       0.86111111       0.55655000 </v>
   <v>       0.52777778       0.80555556       0.55655000 </v>
   <v>       0.47222222       0.80555556       0.59425000 </v>
   <v>       0.52777778       0.86111111       0.59425000 </v>
   <v>       0.47222222       0.91666667       0.36805000 </v>
   <v>       0.52777778       0.97222222       0.36805000 </v>
   <v>       0.47222222       0.97222222       0.40575000 </v>
   <v>       0.52777778       0.91666667       0.40575000 </v>
   <v>       0.47222222       0.91666667       0.44345000 </v>
   <v>       0.52777778       0.97222222       0.44345000 </v>
   <v>       0.47222222       0.97222222       0.48115000 </v>
   <v>       0.52777778       0.91666667       0.48115000 </v>
   <v>       0.47222222       0.91666667       0.51885000 </v>
   <v>       0.52777778       0.97222222       0.51885000 </v>
   <v>       0.47222222       0.97222222       0.55655000 </v>
   <v>       0.52777778       0.91666667       0.55655000 </v>
   <v>       0.47222222       0.91666667       0.59425000 </v>
   <v>       0.52777778       0.97222222       0.59425000 </v>
   <v>       0.58333333       0.02777778       0.36805000 </v>
   <v>       0.63888889       0.08333333       0.36805000 </v>
   <v>       0.58333333       0.08333333       0.40575000 </v>
   <v>       0.63888889       0.02777778       0.40575000 </v>
   <v>       0.58333333       0.02777778       0.44345000 </v>
   <v>       0.63888889       0.08333333       0.44345000 </v>
   <v>       0.58333333       0.08333333       0.48115000 </v>
   <v>       0.63888889       0.02777778       0.48115000 </v>
   <v>       0.58333333       0.02777778       0.51885000 </v>
   <v>       0.63888889       0.08333333       0.51885000 </v>
   <v>       0.58333333       0.08333333       0.55655000 </v>
   <v>       0.63888889       0.02777778       0.55655000 </v>
   <v>       0.58333333       0.02777778       0.59425000 </v>
   <v>       0.63888889       0.08333333       0.59425000 </v>
   <v>       0.58333333       0.13888889       0.36805000 </v>
   <v>       0.63888889       0.19444444       0.36805000 </v>
   <v>       0.58333333       0.19444444       0.40575000 </v>
   <v>       0.63888889       0.13888889       0.40575000 </v>
   <v>       0.58333333       0.13888889       0.44345000 </v>
   <v>       0.63888889       0.19444444       0.44345000 </v>
   <v>       0.58333333       0.19444444       0.48115000 </v>
   <v>       0.63888889       0.13888889       0.48115000 </v>
   <v>       0.58333333       0.13888889       0.51885000 </v>
   <v>       0.63888889       0.19444444       0.51885000 </v>
   <v>       0.58333333       0.19444444       0.55655000 </v>
   <v>       0.63888889       0.13888889       0.55655000 </v>
   <v>       0.58333333       0.13888889       0.59425000 </v>
   <v>       0.63888889       0.19444444       0.59425000 </v>
   <v>       0.58333333       0.25000000       0.36805000 </v>
   <v>       0.63888889       0.30555556       0.36805000 </v>
   <v>       0.58333333       0.30555556       0.40575000 </v>
   <v>       0.63888889       0.25000000       0.40575000 </v>
   <v>       0.58333333       0.25000000       0.44345000 </v>
   <v>       0.63888889       0.30555556       0.44345000 </v>
   <v>       0.58333333       0.30555556       0.48115000 </v>
   <v>       0.63888889       0.25000000       0.48115000 </v>
   <v>       0.58333333       0.25000000       0.51885000 </v>
   <v>       0.63888889       0.30555556       0.51885000 </v>
   <v>       0.58333333       0.30555556       0.55655000 </v>
   <v>       0.63888889       0.25000000       0.55655000 </v>
   <v>       0.58333333       0.25000000       0.59425000 </v>
   <v>       0.63888889       0.30555556       0.59425000 </v>
   <v>       0.58333333       0.36111111       0.36805000 </v>
   <v>       0.63888889       0.41666667       0.36805000 </v>
   <v>       0.58333333       0.41666667       0.40575000 </v>
   <v>       0.63888889       0.36111111       0.40575000 </v>
   <v>       0.58333333       0.36111111       0.44345000 </v>
   <v>       0.63888889       0.41666667       0.44345000 </v>
   <v>       0.58333333       0.41666667       0.48115000 </v>
   <v>       0.63888889       0.36111111       0.48115000 </v>
   <v>       0.58333333       0.36111111       0.51885000 </v>
   <v>       0.63888889       0.41666667       0.51885000 </v>
   <v>       0.58333333       0.41666667       0.55655000 </v>
   <v>       0.63888889       0.36111111       0.55655000 </v>
   <v>       0.58333333       0.36111111       0.59425000 </v>
   <v>       0.63888889       0.41666667       0.59425000 </v>
   <v>       0.58333333       0.47222222       0.36805000 </v>
   <v>       0.63888889       0.52777778       0.36805000 </v>
   <v>       0.58333333       0.52777778       0.40575000 </v>
   <v>       0.63888889       0.47222222       0.40575000 </v>
   <v>       0.58333333       0.47222222       0.44345000 </v>
   <v>       0.63888889       0.52777778       0.44345000 </v>
   <v>       0.58333333       0.52777778       0.48115000 </v>
   <v>       0.63888889       0.47222222       0.48115000 </v>
   <v>       0.58333333       0.47222222       0.51885000 </v>
   <v>       0.63888889       0.52777778       0.51885000 </v>
   <v>       0.58333333       0.52777778       0.55655000 </v>
   <v>       0.63888889       0.47222222       0.55655000 </v>
   <v>       0.58333333       0.47222222       0.59425000 </v>
   <v>       0.63888889       0.52777778       0.59425000 </v>
   <v>       0.58333333       0.58333333       0.36805000 </v>
   <v>       0.63888889       0.63888889       0.36805000 </v>
   <v>       0.58333333       0.63888889       0.40575000 </v>
   <v>       0.63888889       0.58333333       0.40575000 </v>
   <v>       0.58333333       0.58333333       0.44345000 </v>
   <v>       0.63888889       0.63888889       0.44345000 </v>
   <v>       0.58333333       0.63888889       0.48115000 </v>
   <v>       0.63888889       0.58333333       0.48115000 </v>
   <v>       0.58333333       0.58333333       0.51885000 </v>
   <v>       0.63888889       0.63888889       0.51885000 </v>
   <v>       0.58333333       0.63888889       0.55655000 </v>
   <v>       0.63888889       0.58333333       0.55655000 </v>
   <v>       0.58333333       0.58333333       0.59425000 </v>
   <v>       0.63888889       0.63888889       0.59425000 </v>
   <v>       0.58333333       0.69444444       0.36805000 </v>
   <v>       0.63888889       0.75000000       0.36805000 </v>
   <v>       0.58333333       0.75000000       0.40575000 </v>
   <v>       0.63888889       0.69444444       0.40575000 </v>
   <v>       0.58333333       0.69444444       0.44345000 </v>
   <v>       0.63888889       0.75000000       0.44345000 </v>
   <v>       0.58333333       0.75000000       0.48115000 </v>
   <v>       0.63888889       0.69444444       0.48115000 </v>
   <v>       0.58333333       0.69444444       0.51885000 </v>
   <v>       0.63888889       0.75000000       0.51885000 </v>
   <v>       0.58333333       0.75000000       0.55655000 </v>
   <v>       0.63888889       0.69444444       0.55655000 </v>
   <v>       0.58333333       0.69444444       0.59425000 </v>
   <v>       0.63888889       0.75000000       0.59425000 </v>
   <v>       0.58333333       0.80555556       0.36805000 </v>
   <v>       0.63888889       0.86111111       0.36805000 </v>
   <v>       0.58333333       0.86111111       0.40575000 </v>
   <v>       0.63888889       0.80555556       0.40575000 </v>
   <v>       0.58333333       0.80555556       0.44345000 </v>
   <v>       0.63888889       0.86111111       0.44345000 </v>
   <v>       0.58333333       0.86111111       0.48115000 </v>
   <v>       0.63888889       0.80555556       0.48115000 </v>
   <v>       0.58333333       0.80555556       0.51885000 </v>
   <v>       0.63888889       0.86111111       0.51885000 </v>
   <v>       0.58333333       0.86111111       0.55655000 </v>
   <v>       0.63888889       0.80555556       0.55655000 </v>
   <v>       0.58333333       0.80555556       0.59425000 </v>
   <v>       0.63888889       0.86111111       0.59425000 </v>
   <v>       0.58333333       0.91666667       0.36805000 </v>
   <v>       0.63888889       0.97222222       0.36805000 </v>
   <v>       0.58333333       0.97222222       0.40575000 </v>
   <v>       0.63888889       0.91666667       0.40575000 </v>
   <v>       0.58333333       0.91666667       0.44345000 </v>
   <v>       0.63888889       0.97222222       0.44345000 </v>
   <v>       0.58333333       0.97222222       0.48115000 </v>
   <v>       0.63888889       0.91666667       0.48115000 </v>
   <v>       0.58333333       0.91666667       0.51885000 </v>
   <v>       0.63888889       0.97222222       0.51885000 </v>
   <v>       0.58333333       0.97222222       0.55655000 </v>
   <v>       0.63888889       0.91666667       0.55655000 </v>
   <v>       0.58333333       0.91666667       0.59425000 </v>
   <v>       0.63888889       0.97222222       0.59425000 </v>
   <v>       0.69444444       0.02777778       0.36805000 </v>
   <v>       0.75000000       0.08333333       0.36805000 </v>
   <v>       0.69444444       0.08333333       0.40575000 </v>
   <v>       0.75000000       0.02777778       0.40575000 </v>
   <v>       0.69444444       0.02777778       0.44345000 </v>
   <v>       0.75000000       0.08333333       0.44345000 </v>
   <v>       0.69444444       0.08333333       0.48115000 </v>
   <v>       0.75000000       0.02777778       0.48115000 </v>
   <v>       0.69444444       0.02777778       0.51885000 </v>
   <v>       0.75000000       0.08333333       0.51885000 </v>
   <v>       0.69444444       0.08333333       0.55655000 </v>
   <v>       0.75000000       0.02777778       0.55655000 </v>
   <v>       0.69444444       0.02777778       0.59425000 </v>
   <v>       0.75000000       0.08333333       0.59425000 </v>
   <v>       0.69444444       0.13888889       0.36805000 </v>
   <v>       0.75000000       0.19444444       0.36805000 </v>
   <v>       0.69444444       0.19444444       0.40575000 </v>
   <v>       0.75000000       0.13888889       0.40575000 </v>
   <v>       0.69444444       0.13888889       0.44345000 </v>
   <v>       0.75000000       0.19444444       0.44345000 </v>
   <v>       0.69444444       0.19444444       0.48115000 </v>
   <v>       0.75000000       0.13888889       0.48115000 </v>
   <v>       0.69444444       0.13888889       0.51885000 </v>
   <v>       0.75000000       0.19444444       0.51885000 </v>
   <v>       0.69444444       0.19444444       0.55655000 </v>
   <v>       0.75000000       0.13888889       0.55655000 </v>
   <v>       0.69444444       0.13888889       0.59425000 </v>
   <v>       0.75000000       0.19444444       0.59425000 </v>
   <v>       0.69444444       0.25000000       0.36805000 </v>
   <v>       0.75000000       0.30555556       0.36805000 </v>
   <v>       0.69444444       0.30555556       0.40575000 </v>
   <v>       0.75000000       0.25000000       0.40575000 </v>
   <v>       0.69444444       0.25000000       0.44345000 </v>
   <v>       0.75000000       0.30555556       0.44345000 </v>
   <v>       0.69444444       0.30555556       0.48115000 </v>
   <v>       0.75000000       0.25000000       0.48115000 </v>
   <v>       0.69444444       0.25000000       0.51885000 </v>
   <v>       0.75000000       0.30555556       0.51885000 </v>
   <v>       0.69444444       0.30555556       0.55655000 </v>
   <v>       0.75000000       0.25000000       0.55655000 </v>
   <v>       0.69444444       0.25000000       0.59425000 </v>
   <v>       0.75000000       0.30555556       0.59425000 </v>
   <v>       0.69444444       0.36111111       0.36805000 </v>
   <v>       0.75000000       0.41666667       0.36805000 </v>
   <v>       0.69444444       0.41666667       0.40575000 </v>
   <v>       0.75000000       0.36111111       0.40575000 </v>
   <v>       0.69444444       0.36111111       0.44345000 </v>
   <v>       0.75000000       0.41666667       0.44345000 </v>
   <v>       0.69444444       0.41666667       0.48115000 </v>
   <v>       0.75000000       0.36111111       0.48115000 </v>
   <v>       0.69444444       0.36111111       0.51885000 </v>
   <v>       0.75000000       0.41666667       0.51885000 </v>
   <v>       0.69444444       0.41666667       0.55655000 </v>
   <v>       0.75000000       0.36111111       0.55655000 </v>
   <v>       0.69444444       0.36111111       0.59425000 </v>
   <v>       0.75000000       0.41666667       0.59425000 </v>
   <v>       0.69444444       0.47222222       0.36805000 </v>
   <v>       0.75000000       0.52777778       0.36805000 </v>
   <v>       0.69444444       0.52777778       0.40575000 </v>
   <v>       0.75000000       0.47222222       0.40575000 </v>
   <v>       0.69444444       0.47222222       0.44345000 </v>
   <v>       0.75000000       0.52777778       0.44345000 </v>
   <v>       0.69444444       0.52777778       0.48115000 </v>
   <v>       0.75000000       0.47222222       0.48115000 </v>
   <v>       0.69444444       0.47222222       0.51885000 </v>
   <v>       0.75000000       0.52777778       0.51885000 </v>
   <v>       0.69444444       0.52777778       0.55655000 </v>
   <v>       0.75000000       0.47222222       0.55655000 </v>
   <v>       0.69444444       0.47222222       0.59425000 </v>
   <v>       0.75000000       0.52777778       0.59425000 </v>
   <v>       0.69444444       0.58333333       0.36805000 </v>
   <v>       0.75000000       0.63888889       0.36805000 </v>
   <v>       0.69444444       0.63888889       0.40575000 </v>
   <v>       0.75000000       0.58333333       0.40575000 </v>
   <v>       0.69444444       0.58333333       0.44345000 </v>
   <v>       0.75000000       0.63888889       0.44345000 </v>
   <v>       0.69444444       0.63888889       0.48115000 </v>
   <v>       0.75000000       0.58333333       0.48115000 </v>
   <v>       0.69444444       0.58333333       0.51885000 </v>
   <v>       0.75000000       0.63888889       0.51885000 </v>
   <v>       0.69444444       0.63888889       0.55655000 </v>
   <v>       0.75000000       0.58333333       0.55655000 </v>
   <v>       0.69444444       0.58333333       0.59425000 </v>
   <v>       0.75000000       0.63888889       0.59425000 </v>
   <v>       0.69444444       0.69444444       0.36805000 </v>
   <v>       0.75000000       0.75000000       0.36805000 </v>
   <v>       0.69444444       0.75000000       0.40575000 </v>
   <v>       0.75000000       0.69444444       0.40575000 </v>
   <v>       0.69444444       0.69444444       0.44345000 </v>
   <v>       0.75000000       0.75000000       0.44345000 </v>
   <v>       0.69444444       0.75000000       0.48115000 </v>
   <v>       0.75000000       0.69444444       0.48115000 </v>
   <v>       0.69444444       0.69444444       0.51885000 </v>
   <v>       0.75000000       0.75000000       0.51885000 </v>
   <v>       0.69444444       0.75000000       0.55655000 </v>
   <v>       0.75000000       0.69444444       0.55655000 </v>
   <v>       0.69444444       0.69444444       0.59425000 </v>
   <v>       0.75000000       0.75000000       0.59425000 </v>
   <v>       0.69444444       0.80555556       0.36805000 </v>
   <v>       0.75000000       0.86111111       0.36805000 </v>
   <v>       0.69444444       0.86111111       0.40575000 </v>
   <v>       0.75000000       0.80555556       0.40575000 </v>
   <v>       0.69444444       0.80555556       0.44345000 </v>
   <v>       0.75000000       0.86111111       0.44345000 </v>
   <v>       0.69444444       0.86111111       0.48115000 </v>
   <v>       0.75000000       0.80555556       0.48115000 </v>
   <v>       0.69444444       0.80555556       0.51885000 </v>
   <v>       0.75000000       0.86111111       0.51885000 </v>
   <v>       0.69444444       0.86111111       0.55655000 </v>
   <v>       0.75000000       0.80555556       0.55655000 </v>
   <v>       0.69444444       0.80555556       0.59425000 </v>
   <v>       0.75000000       0.86111111       0.59425000 </v>
   <v>       0.69444444       0.91666667       0.36805000 </v>
   <v>       0.75000000       0.97222222       0.36805000 </v>
   <v>       0.69444444       0.97222222       0.40575000 </v>
   <v>       0.75000000       0.91666667       0.40575000 </v>
   <v>       0.69444444       0.91666667       0.44345000 </v>
   <v>       0.75000000       0.97222222       0.44345000 </v>
   <v>       0.69444444       0.97222222       0.48115000 </v>
   <v>       0.75000000       0.91666667       0.48115000 </v>
   <v>       0.69444444       0.91666667       0.51885000 </v>
   <v>       0.75000000       0.97222222       0.51885000 </v>
   <v>       0.69444444       0.97222222       0.55655000 </v>
   <v>       0.75000000       0.91666667       0.55655000 </v>
   <v>       0.69444444       0.91666667       0.59425000 </v>
   <v>       0.75000000       0.97222222       0.59425000 </v>
   <v>       0.80555556       0.02777778       0.36805000 </v>
   <v>       0.86111111       0.08333333       0.36805000 </v>
   <v>       0.80555556       0.08333333       0.40575000 </v>
   <v>       0.86111111       0.02777778       0.40575000 </v>
   <v>       0.80555556       0.02777778       0.44345000 </v>
   <v>       0.86111111       0.08333333       0.44345000 </v>
   <v>       0.80555556       0.08333333       0.48115000 </v>
   <v>       0.86111111       0.02777778       0.48115000 </v>
   <v>       0.80555556       0.02777778       0.51885000 </v>
   <v>       0.86111111       0.08333333       0.51885000 </v>
   <v>       0.80555556       0.08333333       0.55655000 </v>
   <v>       0.86111111       0.02777778       0.55655000 </v>
   <v>       0.80555556       0.02777778       0.59425000 </v>
   <v>       0.86111111       0.08333333       0.59425000 </v>
   <v>       0.80555556       0.13888889       0.36805000 </v>
   <v>       0.86111111       0.19444444       0.36805000 </v>
   <v>       0.80555556       0.19444444       0.40575000 </v>
   <v>       0.86111111       0.13888889       0.40575000 </v>
   <v>       0.80555556       0.13888889       0.44345000 </v>
   <v>       0.86111111       0.19444444       0.44345000 </v>
   <v>       0.80555556       0.19444444       0.48115000 </v>
   <v>       0.86111111       0.13888889       0.48115000 </v>
   <v>       0.80555556       0.13888889       0.51885000 </v>
   <v>       0.86111111       0.19444444       0.51885000 </v>
   <v>       0.80555556       0.19444444       0.55655000 </v>
   <v>       0.86111111       0.13888889       0.55655000 </v>
   <v>       0.80555556       0.13888889       0.59425000 </v>
   <v>       0.86111111       0.19444444       0.59425000 </v>
   <v>       0.80555556       0.25000000       0.36805000 </v>
   <v>       0.86111111       0.30555556       0.36805000 </v>
   <v>       0.80555556       0.30555556       0.40575000 </v>
   <v>       0.86111111       0.25000000       0.40575000 </v>
   <v>       0.80555556       0.25000000       0.44345000 </v>
   <v>       0.86111111       0.30555556       0.44345000 </v>
   <v>       0.80555556       0.30555556       0.48115000 </v>
   <v>       0.86111111       0.25000000       0.48115000 </v>
   <v>       0.80555556       0.25000000       0.51885000 </v>
   <v>       0.86111111       0.30555556       0.51885000 </v>
   <v>       0.80555556       0.30555556       0.55655000 </v>
   <v>       0.86111111       0.25000000       0.55655000 </v>
   <v>       0.80555556       0.25000000       0.59425000 </v>
   <v>       0.86111111       0.30555556       0.59425000 </v>
   <v>       0.80555556       0.36111111       0.36805000 </v>
   <v>       0.86111111       0.41666667       0.36805000 </v>
   <v>       0.80555556       0.41666667       0.40575000 </v>
   <v>       0.86111111       0.36111111       0.40575000 </v>
   <v>       0.80555556       0.36111111       0.44345000 </v>
   <v>       0.86111111       0.41666667       0.44345000 </v>
   <v>       0.80555556       0.41666667       0.48115000 </v>
   <v>       0.86111111       0.36111111       0.48115000 </v>
   <v>       0.80555556       0.36111111       0.51885000 </v>
   <v>       0.86111111       0.41666667       0.51885000 </v>
   <v>       0.80555556       0.41666667       0.55655000 </v>
   <v>       0.86111111       0.36111111       0.55655000 </v>
   <v>       0.80555556       0.36111111       0.59425000 </v>
   <v>       0.86111111       0.41666667       0.59425000 </v>
   <v>       0.80555556       0.47222222       0.36805000 </v>
   <v>       0.86111111       0.52777778       0.36805000 </v>
   <v>       0.80555556       0.52777778       0.40575000 </v>
   <v>       0.86111111       0.47222222       0.40575000 </v>
   <v>       0.80555556       0.47222222       0.44345000 </v>
   <v>       0.86111111       0.52777778       0.44345000 </v>
   <v>       0.80555556       0.52777778       0.48115000 </v>
   <v>       0.86111111       0.47222222       0.48115000 </v>
   <v>       0.80555556       0.47222222       0.51885000 </v>
   <v>       0.86111111       0.52777778       0.51885000 </v>
   <v>       0.80555556       0.52777778       0.55655000 </v>
   <v>       0.86111111       0.47222222       0.55655000 </v>
   <v>       0.80555556       0.47222222       0.59425000 </v>
   <v>       0.86111111       0.52777778       0.59425000 </v>
   <v>       0.80555556       0.58333333       0.36805000 </v>
   <v>       0.86111111       0.63888889       0.36805000 </v>
   <v>       0.80555556       0.63888889       0.40575000 </v>
   <v>       0.86111111       0.58333333       0.40575000 </v>
   <v>       0.80555556       0.58333333       0.44345000 </v>
   <v>       0.86111111       0.63888889       0.44345000 </v>
   <v>       0.80555556       0.63888889       0.48115000 </v>
   <v>       0.86111111       0.58333333       0.48115000 </v>
   <v>       0.80555556       0.58333333       0.51885000 </v>
   <v>       0.86111111       0.63888889       0.51885000 </v>
   <v>       0.80555556       0.63888889       0.55655000 </v>
   <v>       0.86111111       0.58333333       0.55655000 </v>
   <v>       0.80555556       0.58333333       0.59425000 </v>
   <v>       0.86111111       0.63888889       0.59425000 </v>
   <v>       0.80555556       0.69444444       0.36805000 </v>
   <v>       0.86111111       0.75000000       0.36805000 </v>
   <v>       0.80555556       0.75000000       0.40575000 </v>
   <v>       0.86111111       0.69444444       0.40575000 </v>
   <v>       0.80555556       0.69444444       0.44345000 </v>
   <v>       0.86111111       0.75000000       0.44345000 </v>
   <v>       0.80555556       0.75000000       0.48115000 </v>
   <v>       0.86111111       0.69444444       0.48115000 </v>
   <v>       0.80555556       0.69444444       0.51885000 </v>
   <v>       0.86111111       0.75000000       0.51885000 </v>
   <v>       0.80555556       0.75000000       0.55655000 </v>
   <v>       0.86111111       0.69444444       0.55655000 </v>
   <v>       0.80555556       0.69444444       0.59425000 </v>
   <v>       0.86111111       0.75000000       0.59425000 </v>
   <v>       0.80555556       0.80555556       0.36805000 </v>
   <v>       0.86111111       0.86111111       0.36805000 </v>
   <v>       0.80555556       0.86111111       0.40575000 </v>
   <v>       0.86111111       0.80555556       0.40575000 </v>
   <v>       0.80555556       0.80555556       0.44345000 </v>
   <v>       0.86111111       0.86111111       0.44345000 </v>
   <v>       0.80555556       0.86111111       0.48115000 </v>
   <v>       0.86111111       0.80555556       0.48115000 </v>
   <v>       0.80555556       0.80555556       0.51885000 </v>
   <v>       0.86111111       0.86111111       0.51885000 </v>
   <v>       0.80555556       0.86111111       0.55655000 </v>
   <v>       0.86111111       0.80555556       0.55655000 </v>
   <v>       0.80555556       0.80555556       0.59425000 </v>
   <v>       0.86111111       0.86111111       0.59425000 </v>
   <v>       0.80555556       0.91666667       0.36805000 </v>
   <v>       0.86111111       0.97222222       0.36805000 </v>
   <v>       0.80555556       0.97222222       0.40575000 </v>
   <v>       0.86111111       0.91666667       0.40575000 </v>
   <v>       0.80555556       0.91666667       0.44345000 </v>
   <v>       0.86111111       0.97222222       0.44345000 </v>
   <v>       0.80555556       0.97222222       0.48115000 </v>
   <v>       0.86111111       0.91666667       0.48115000 </v>
   <v>       0.80555556       0.91666667       0.51885000 </v>
   <v>       0.86111111       0.97222222       0.51885000 </v>
   <v>       0.80555556       0.97222222       0.55655000 </v>
   <v>       0.86111111       0.91666667       0.55655000 </v>
   <v>       0.80555556       0.91666667       0.59425000 </v>
   <v>       0.86111111       0.97222222       0.59425000 </v>
   <v>       0.91666667       0.02777778       0.36805000 </v>
   <v>       0.97222222       0.08333333       0.36805000 </v>
   <v>       0.91666667       0.08333333       0.40575000 </v>
   <v>       0.97222222       0.02777778       0.40575000 </v>
   <v>       0.91666667       0.02777778       0.44345000 </v>
   <v>       0.97222222       0.08333333       0.44345000 </v>
   <v>       0.91666667       0.08333333       0.48115000 </v>
   <v>       0.97222222       0.02777778       0.48115000 </v>
   <v>       0.91666667       0.02777778       0.51885000 </v>
   <v>       0.97222222       0.08333333       0.51885000 </v>
   <v>       0.91666667       0.08333333       0.55655000 </v>
   <v>       0.97222222       0.02777778       0.55655000 </v>
   <v>       0.91666667       0.02777778       0.59425000 </v>
   <v>       0.97222222       0.08333333       0.59425000 </v>
   <v>       0.91666667       0.13888889       0.36805000 </v>
   <v>       0.97222222       0.19444444       0.36805000 </v>
   <v>       0.91666667       0.19444444       0.40575000 </v>
   <v>       0.97222222       0.13888889       0.40575000 </v>
   <v>       0.91666667       0.13888889       0.44345000 </v>
   <v>       0.97222222       0.19444444       0.44345000 </v>
   <v>       0.91666667       0.19444444       0.48115000 </v>
   <v>       0.97222222       0.13888889       0.48115000 </v>
   <v>       0.91666667       0.13888889       0.51885000 </v>
   <v>       0.97222222       0.19444444       0.51885000 </v>
   <v>       0.91666667       0.19444444       0.55655000 </v>
   <v>       0.97222222       0.13888889       0.55655000 </v>
   <v>       0.91666667       0.13888889       0.59425000 </v>
   <v>       0.97222222       0.19444444       0.59425000 </v>
   <v>       0.91666667       0.25000000       0.36805000 </v>
   <v>       0.97222222       0.30555556       0.36805000 </v>
   <v>       0.91666667       0.30555556       0.40575000 </v>
   <v>       0.97222222       0.25000000       0.40575000 </v>
   <v>       0.91666667       0.25000000       0.44345000 </v>
   <v>       0.97222222       0.30555556       0.44345000 </v>
   <v>       0.91666667       0.30555556       0.48115000 </v>
   <v>       0.97222222       0.25000000       0.48115000 </v>
   <v>       0.91666667       0.25000000       0.51885000 </v>
   <v>       0.97222222       0.30555556       0.51885000 </v>
   <v>       0.91666667       0.30555556       0.55655000 </v>
   <v>       0.97222222       0.25000000       0.55655000 </v>
   <v>       0.91666667       0.25000000       0.59425000 </v>
   <v>       0.97222222       0.30555556       0.59425000 </v>
   <v>       0.91666667       0.36111111       0.36805000 </v>
   <v>       0.97222222       0.41666667       0.36805000 </v>
   <v>       0.91666667       0.41666667       0.40575000 </v>
   <v>       0.97222222       0.36111111       0.40575000 </v>
   <v>       0.91666667       0.36111111       0.44345000 </v>
   <v>       0.97222222       0.41666667       0.44345000 </v>
   <v>       0.91666667       0.41666667       0.48115000 </v>
   <v>       0.97222222       0.36111111       0.48115000 </v>
   <v>       0.91666667       0.36111111       0.51885000 </v>
   <v>       0.97222222       0.41666667       0.51885000 </v>
   <v>       0.91666667       0.41666667       0.55655000 </v>
   <v>       0.97222222       0.36111111       0.55655000 </v>
   <v>       0.91666667       0.36111111       0.59425000 </v>
   <v>       0.97222222       0.41666667       0.59425000 </v>
   <v>       0.91666667       0.47222222       0.36805000 </v>
   <v>       0.97222222       0.52777778       0.36805000 </v>
   <v>       0.91666667       0.52777778       0.40575000 </v>
   <v>       0.97222222       0.47222222       0.40575000 </v>
   <v>       0.91666667       0.47222222       0.44345000 </v>
   <v>       0.97222222       0.52777778       0.44345000 </v>
   <v>       0.91666667       0.52777778       0.48115000 </v>
   <v>       0.97222222       0.47222222       0.48115000 </v>
   <v>       0.91666667       0.47222222       0.51885000 </v>
   <v>       0.97222222       0.52777778       0.51885000 </v>
   <v>       0.91666667       0.52777778       0.55655000 </v>
   <v>       0.97222222       0.47222222       0.55655000 </v>
   <v>       0.91666667       0.47222222       0.59425000 </v>
   <v>       0.97222222       0.52777778       0.59425000 </v>
   <v>       0.91666667       0.58333333       0.36805000 </v>
   <v>       0.97222222       0.63888889       0.36805000 </v>
   <v>       0.91666667       0.63888889       0.40575000 </v>
   <v>       0.97222222       0.58333333       0.40575000 </v>
   <v>       0.91666667       0.58333333       0.44345000 </v>
   <v>       0.97222222       0.63888889       0.44345000 </v>
   <v>       0.91666667       0.63888889       0.48115000 </v>
   <v>       0.97222222       0.58333333       0.48115000 </v>
   <v>       0.91666667       0.58333333       0.51885000 </v>
   <v>       0.97222222       0.63888889       0.51885000 </v>
   <v>       0.91666667       0.63888889       0.55655000 </v>
   <v>       0.97222222       0.58333333       0.55655000 </v>
   <v>       0.91666667       0.58333333       0.59425000 </v>
   <v>       0.97222222       0.63888889       0.59425000 </v>
   <v>       0.91666667       0.69444444       0.36805000 </v>
   <v>       0.97222222       0.75000000       0.36805000 </v>
   <v>       0.91666667       0.75000000       0.40575000 </v>
   <v>       0.97222222       0.69444444       0.40575000 </v>
   <v>       0.91666667       0.69444444       0.44345000 </v>
   <v>       0.97222222       0.75000000       0.44345000 </v>
   <v>       0.91666667       0.75000000       0.48115000 </v>
   <v>       0.97222222       0.69444444       0.48115000 </v>
   <v>       0.91666667       0.69444444       0.51885000 </v>
   <v>       0.97222222       0.75000000       0.51885000 </v>
   <v>       0.91666667       0.75000000       0.55655000 </v>
   <v>       0.97222222       0.69444444       0.55655000 </v>
   <v>       0.91666667       0.69444444       0.59425000 </v>
   <v>       0.97222222       0.75000000       0.59425000 </v>
   <v>       0.91666667       0.80555556       0.36805000 </v>
   <v>       0.97222222       0.86111111       0.36805000 </v>
   <v>       0.91666667       0.86111111       0.40575000 </v>
   <v>       0.97222222       0.80555556       0.40575000 </v>
   <v>       0.91666667       0.80555556       0.44345000 </v>
   <v>       0.97222222       0.86111111       0.44345000 </v>
   <v>       0.91666667       0.86111111       0.48115000 </v>
   <v>       0.97222222       0.80555556       0.48115000 </v>
   <v>       0.91666667       0.80555556       0.51885000 </v>
   <v>       0.97222222       0.86111111       0.51885000 </v>
   <v>       0.91666667       0.86111111       0.55655000 </v>
   <v>       0.97222222       0.80555556       0.55655000 </v>
   <v>       0.91666667       0.80555556       0.59425000 </v>
   <v>       0.97222222       0.86111111       0.59425000 </v>
   <v>       0.91666667       0.91666667       0.36805000 </v>
   <v>       0.97222222       0.97222222       0.36805000 </v>
   <v>       0.91666667       0.97222222       0.40575000 </v>
   <v>       0.97222222       0.91666667       0.40575000 </v>
   <v>       0.91666667       0.91666667       0.44345000 </v>
   <v>       0.97222222       0.97222222       0.44345000 </v>
   <v>       0.91666667       0.97222222       0.48115000 </v>
   <v>       0.97222222       0.91666667       0.48115000 </v>
   <v>       0.91666667       0.91666667       0.51885000 </v>
   <v>       0.97222222       0.97222222       0.51885000 </v>
   <v>       0.91666667       0.97222222       0.55655000 </v>
   <v>       0.97222222       0.91666667       0.55655000 </v>
   <v>       0.91666667       0.91666667       0.59425000 </v>
   <v>       0.97222222       0.97222222       0.59425000 </v>
   <v>       0.39787798       0.44208665       0.72545000 </v>
   <v>       0.42859614       0.46901049       0.71860500 </v>
   <v>       0.43806398       0.46586899       0.68869104 </v>
   <v>       0.46878078       0.49279546       0.68184800 </v>
   <v>       0.41452505       0.47211264       0.67696704 </v>
   <v>       0.50585662       0.51206920       0.64144804 </v>
   <v>       0.45213504       0.46276617       0.73033102 </v>
   <v>       0.40665031       0.41495149       0.72114600 </v>
   <v>       0.49231969       0.48655113       0.69357104 </v>
   <v>       0.46000978       0.51992732       0.68615200 </v>
   <v>       0.41982514       0.49614232       0.72291102 </v>
   <v>       0.44683495       0.43873646       0.68438704 </v>
   <v>       0.37434041       0.44832765       0.71372600 </v>
   <v>       0.39130156       0.44426858       0.74623402 </v>
   <v>       0.47972370       0.48916581       0.64727200 </v>
  </varray>
 </structure>
</modeling>
