LAMMPS (22 Jul 2025 - Update 1)
  using 1 OpenMP thread(s) per MPI task
variable        run_name string "Small NLR LAMMPS benchmark"
print           "--- Starting run: ${run_name} ---"
--- Starting run: Small NLR LAMMPS benchmark ---

variable 	thermo_print equal 250
variable	total_step equal ${thermo_print}*10
variable	total_step equal 250*10

units		real
boundary	p p p
neighbor        2.0 bin
neigh_modify    delay 10 every 1
atom_style	full
bond_style      harmonic
angle_style     harmonic
dihedral_style  harmonic
pair_style      lj/cut/coul/long 10.0
pair_modify     mix arithmetic
kspace_style    pppm 1e-4
read_data       ../data.begin
Reading data file ...
  orthogonal box = (0.049808341 0.049808341 0.049808341) to (208.65137 208.65137 208.65137)
  6 by 4 by 8 MPI processor grid
  reading atoms ...
  744000 atoms
  reading velocities ...
  744000 velocities
  scanning bonds ...
  2 = max bonds/atom
  orthogonal box = (0.049808341 0.049808341 0.049808341) to (208.65137 208.65137 208.65137)
  6 by 4 by 8 MPI processor grid
  reading bonds ...
  648000 bonds
Finding 1-2 1-3 1-4 neighbors ...
  special bond factors lj:    0        0        0       
  special bond factors coul:  0        0        0       
     2 = max # of 1-2 neighbors
     2 = max # of 1-3 neighbors
     4 = max # of 1-4 neighbors
     2 = max # of special neighbors
  special bonds CPU = 0.076 seconds
  read_data CPU = 5.400 seconds
fix		microcanonical all nve
timestep	1
thermo          ${thermo_print}
thermo          250
thermo_modify   flush yes
run             ${total_step}
run             2500
PPPM initialization ...
  using 12-bit tables for long-range coulomb
  G vector (1/distance) = 0.26392422
  grid = 108 108 108
  stencil order = 5
  estimated absolute RMS force accuracy = 0.034660511
  estimated relative force accuracy = 0.0001043791
  using double precision FFTW3
  3d grid and FFT values/proc = 17000 6804
Generated 6 of 6 mixed pair_coeff terms from arithmetic mixing rule
Neighbor list info ...
  update: every = 1 steps, delay = 10 steps, check = yes
  max neighbors/atom: 2000, page size: 100000
  master list distance cutoff = 12
  ghost atom cutoff = 12
  binsize = 6, bins = 35 35 35
  1 neighbor lists, perpetual/occasional/extra = 1 0 0
  (1) pair lj/cut/coul/long, perpetual
      attributes: half, newton on
      pair build: half/bin/newton
      stencil: half/bin/3d
      bin: standard
Per MPI rank memory allocation (min/avg/max) = 21.95 | 22.03 | 22.4 Mbytes
   Step          Temp          E_pair         E_mol          TotEng         Press     
         0   299.89414     -12160492       267174.94     -11228236       40.182647    
       250   299.99505     -12162630       269090.01     -11228235      -3.6271003    
       500   300.11778     -12162961       269132        -11228252       9.9771936    
       750   299.3406      -12160802       268711.37     -11228237      -13.122392    
      1000   300.08017     -12162523       268781.27     -11228248       25.590014    
      1250   300.30651     -12163180       268951.62     -11228232      -2.0790486    
      1500   300.00589     -12162609       269032.85     -11228247      -30.598719    
      1750   300.28755     -12163491       269303.55     -11228234      -7.2956895    
      2000   300.37346     -12163214       268801.22     -11228269      -8.3417147    
      2250   300.14603     -12164495       270605.55     -11228249      -9.483435     
      2500   300.09867     -12164073       270257.05     -11228282      -36.805839    
Loop time of 59.0864 on 192 procs for 2500 steps with 744000 atoms

Performance: 3.656 ns/day, 6.565 hours/ns, 42.311 timesteps/s, 31.479 Matom-step/s
95.3% CPU use with 192 MPI tasks x 1 OpenMP threads

MPI task timing breakdown:
Section |  min time  |  avg time  |  max time  |%varavg| %total
---------------------------------------------------------------
Pair    | 27.657     | 29.113     | 30.644     |  10.6 | 49.27
Bond    | 0.065963   | 0.07764    | 0.11654    |   3.7 |  0.13
Kspace  | 20.012     | 21.479     | 23.055     |  12.4 | 36.35
Neigh   | 4.701      | 4.747      | 4.8093     |   1.0 |  8.03
Comm    | 2.8756     | 3.1257     | 3.3637     |   5.5 |  5.29
Output  | 0.0019889  | 0.0040478  | 0.0079301  |   1.3 |  0.01
Modify  | 0.11716    | 0.14856    | 0.21519    |   6.0 |  0.25
Other   |            | 0.3915     |            |       |  0.66

Nlocal:           3875 ave        3973 max        3780 min
Histogram: 2 5 23 27 47 37 28 14 6 3
Nghost:        14491.9 ave       14626 max       14323 min
Histogram: 3 5 9 21 37 38 25 29 19 6
Neighs:    1.14792e+06 ave 1.22276e+06 max  1.0985e+06 min
Histogram: 5 16 41 44 35 25 20 3 2 1

Total # of neighbors = 2.2040143e+08
Ave neighs/atom = 296.23848
Ave special neighs/atom = 1.7419355
Neighbor list builds = 184
Dangerous builds = 0


Total wall time: 0:01:05
