LAMMPS (22 Jul 2025 - Update 1)
  using 1 OpenMP thread(s) per MPI task
variable        run_name string "Small NLR LAMMPS benchmark"
print           "--- Starting run: ${run_name} ---"
--- Starting run: Small NLR LAMMPS benchmark ---

variable 	thermo_print equal 250
variable	total_step equal ${thermo_print}*10
variable	total_step equal 250*10

units		real
boundary	p p p
neighbor        2.0 bin
neigh_modify    delay 10 every 1
atom_style	full
bond_style      harmonic
angle_style     harmonic
dihedral_style  harmonic
pair_style      lj/cut/coul/long 10.0
pair_modify     mix arithmetic
kspace_style    pppm 1e-4
read_data       ../data.begin
Reading data file ...
  orthogonal box = (0.049808341 0.049808341 0.049808341) to (208.65137 208.65137 208.65137)
  6 by 8 by 8 MPI processor grid
  reading atoms ...
  744000 atoms
  reading velocities ...
  744000 velocities
  scanning bonds ...
  2 = max bonds/atom
  orthogonal box = (0.049808341 0.049808341 0.049808341) to (208.65137 208.65137 208.65137)
  6 by 8 by 8 MPI processor grid
  reading bonds ...
  648000 bonds
Finding 1-2 1-3 1-4 neighbors ...
  special bond factors lj:    0        0        0       
  special bond factors coul:  0        0        0       
     2 = max # of 1-2 neighbors
     2 = max # of 1-3 neighbors
     4 = max # of 1-4 neighbors
     2 = max # of special neighbors
  special bonds CPU = 0.204 seconds
  read_data CPU = 5.636 seconds
fix		microcanonical all nve
timestep	1
thermo          ${thermo_print}
thermo          250
thermo_modify   flush yes
run             ${total_step}
run             2500
PPPM initialization ...
  using 12-bit tables for long-range coulomb
  G vector (1/distance) = 0.26392422
  grid = 108 108 108
  stencil order = 5
  estimated absolute RMS force accuracy = 0.034660511
  estimated relative force accuracy = 0.0001043791
  using double precision FFTW3
  3d grid and FFT values/proc = 10000 3780
Generated 6 of 6 mixed pair_coeff terms from arithmetic mixing rule
Neighbor list info ...
  update: every = 1 steps, delay = 10 steps, check = yes
  max neighbors/atom: 2000, page size: 100000
  master list distance cutoff = 12
  ghost atom cutoff = 12
  binsize = 6, bins = 35 35 35
  1 neighbor lists, perpetual/occasional/extra = 1 0 0
  (1) pair lj/cut/coul/long, perpetual
      attributes: half, newton on
      pair build: half/bin/newton
      stencil: half/bin/3d
      bin: standard
Per MPI rank memory allocation (min/avg/max) = 12.81 | 12.91 | 13.28 Mbytes
   Step          Temp          E_pair         E_mol          TotEng         Press     
         0   299.89414     -12160492       267174.94     -11228236       40.182647    
       250   299.99505     -12162630       269090.01     -11228235      -3.6271364    
       500   300.11778     -12162961       269132        -11228252       9.977317     
       750   299.34063     -12160802       268711.65     -11228237      -13.137675    
      1000   300.09106     -12162536       268769.9      -11228249       25.910926    
      1250   300.2489      -12163016       268917.44     -11228230      -3.4371061    
      1500   300.04909     -12163192       269525.31     -11228242      -57.136538    
      1750   300.36178     -12163605       269228.41     -11228259      -0.72852787   
      2000   300.33665     -12163686       269345.45     -11228278      -26.430531    
      2250   299.74083     -12162449       269446.71     -11228261      -71.099809    
      2500   300.01138     -12164413       270810.79     -11228261      -80.586248    
Loop time of 81.7902 on 384 procs for 2500 steps with 744000 atoms

Performance: 2.641 ns/day, 9.088 hours/ns, 30.566 timesteps/s, 22.741 Matom-step/s
98.2% CPU use with 384 MPI tasks x 1 OpenMP threads

MPI task timing breakdown:
Section |  min time  |  avg time  |  max time  |%varavg| %total
---------------------------------------------------------------
Pair    | 13.316     | 14.26      | 15.397     |  10.5 | 17.44
Bond    | 0.030273   | 0.035191   | 0.046827   |   1.9 |  0.04
Kspace  | 60.975     | 62.152     | 63.174     |   5.0 | 75.99
Neigh   | 2.3624     | 2.3964     | 2.4308     |   0.8 |  2.93
Comm    | 2.3423     | 2.5582     | 2.8456     |   5.3 |  3.13
Output  | 0.0021715  | 0.004078   | 0.017452   |   1.5 |  0.00
Modify  | 0.049504   | 0.067784   | 0.091412   |   3.6 |  0.08
Other   |            | 0.3163     |            |       |  0.39

Nlocal:         1937.5 ave        2005 max        1875 min
Histogram: 7 22 36 63 83 74 47 29 15 8
Nghost:        10142.7 ave       10341 max       10005 min
Histogram: 7 32 66 87 79 60 36 12 3 2
Neighs:         573975 ave      614407 max      540208 min
Histogram: 7 19 64 60 81 79 37 21 9 7

Total # of neighbors = 2.2040634e+08
Ave neighs/atom = 296.24508
Ave special neighs/atom = 1.7419355
Neighbor list builds = 184
Dangerous builds = 0


Total wall time: 0:01:28
